#######################################################
#CASTEP cell file: /home/phony_stark/Desktop/RAL/eCSE/neb-perftests/copper-vacancy/cuvac-geomopt-final/final.cell
#Created using the Atomic Simulation Environment (ASE)#
#######################################################

%BLOCK LATTICE_CART
 7.220000  0.000000  0.000000
 0.000000  7.220000  0.000000
 0.000000  0.000000  7.220000
%ENDBLOCK LATTICE_CART

%BLOCK POSITIONS_ABS
Cu  0.001686  0.001686  0.000000
Cu  0.008211  1.805000  1.813211
Cu  1.805000  0.008211  1.813211
Cu  1.805000  1.805000  0.000000
Cu  0.008211  0.008211  3.610000
Cu  0.008211  1.805000  5.406789
Cu  1.805000  0.008211  5.406789
Cu  3.601789  3.601789  3.610000
Cu  0.001686  3.608314  0.000000
Cu  0.001686  5.415000  1.806686
Cu  1.805000  3.601789  1.813211
Cu  1.805000  5.415000  0.000000
Cu  0.008211  3.601789  3.610000
Cu  0.001686  5.415000  5.413314
Cu  1.805000  3.601789  5.406789
Cu  1.805000  5.415000  3.610000
Cu  3.608314  0.001686  0.000000
Cu  3.601789  1.805000  1.813211
Cu  5.415000  0.001686  1.806686
Cu  5.415000  1.805000  0.000000
Cu  3.601789  0.008211  3.610000
Cu  3.601789  1.805000  5.406789
Cu  5.415000  0.001686  5.413314
Cu  5.415000  1.805000  3.610000
Cu  3.608314  3.608314 -0.000000
Cu  3.608314  5.415000  1.806686
Cu  5.415000  3.608314  1.806686
Cu  5.415000  5.415000  0.000000
Cu  3.608314  5.415000  5.413314
Cu  5.415000  3.608314  5.413314
Cu  5.415000  5.415000  3.610000
%ENDBLOCK POSITIONS_ABS

%BLOCK CELL_CONSTRAINTS
1 1 1
0 0 0
%ENDBLOCK CELL_CONSTRAINTS

KPOINT_MP_GRID: 4 4 4
