# CELL file written 17:42:09 (GMT+1.0) 10th August 2021 from run final

%BLOCK lattice_cart
   ANG
       7.25335934556551        0.00000000000000        0.00000000000000    
       0.00000000000000        7.25335934556551        0.00000000000000    
       0.00000000000000        0.00000000000000        7.25335934556551    
%ENDBLOCK lattice_cart

%BLOCK cell_constraints
      0   0   0
      0   0   0
%ENDBLOCK cell_constraints

%BLOCK positions_frac
   Cu             0.000811417600230       0.000810923267127      -0.000000115089976
   Cu             0.002910145060275       0.250003368959066       0.252911918860601
   Cu             0.250000672455996       0.002909078564094       0.252908026136249
   Cu             0.250000162475735       0.250001664458516       0.999999995443753
   Cu             0.002908656454599       0.002909790907526       0.500000267082235
   Cu             0.002910887544083       0.250003386276568       0.747087351918126
   Cu             0.249999695763400       0.002909344960118       0.747091807499722
   Cu             0.497090892953060       0.497091445640161       0.499999565497893
   Cu             0.000811790320138       0.499189080911581      -0.000000234344633
   Cu             0.000810170470649       0.749996385433570       0.250813618197107
   Cu             0.249998834885889       0.497090336590204       0.252911063028941
   Cu             0.250000316152377       0.749999127395274      -0.000000000351041
   Cu             0.002909104016046       0.497091392254320       0.500000274710021
   Cu             0.000810514808943       0.749996153211871       0.749186449320184
   Cu             0.249998288261567       0.497090555530836       0.747089065980793
   Cu             0.249998273984567       0.749997587174107       0.499999883965569
   Cu             0.499188381748251       0.000811027704822       0.000000598837692
   Cu             0.497089456208067       0.250001743191729       0.252910368347450
   Cu             0.749999616624241       0.000809870850952       0.250812085547285
   Cu             0.749999595373630       0.250001060062498       1.000000319474444
   Cu             0.497091607857595       0.002909032664719       0.499999643116064
   Cu             0.497089258532044       0.250001692286534       0.747090083975396
   Cu             0.750000329235640       0.000810059399766       0.749188017058544
   Cu             0.750001318761252       0.250003464767366       0.500000007481095
   Cu             0.499187988495710       0.499189409545820       0.000000458235789
   Cu             0.499189795409229       0.749998290130591       0.250811415908364
   Cu             0.750000766933100       0.499190062034046       0.250813901781217
   Cu             0.749999167227618       0.749999442608291       0.000000428736427
   Cu             0.499189497220880       0.749998217829357       0.749188636704921
   Cu             0.750001985058218       0.499190241549972       0.749185399617171
   Cu             0.750001412106972       0.749996763838599       0.499999697322598
%ENDBLOCK positions_frac

FIX_COM : true

%BLOCK species_gamma
   radsectesla
   Cu         71117890.00    
%ENDBLOCK species_gamma

%BLOCK species_pot
   Cu      3|2.2|2.0|1.0|10|12|13|40:41:32(qc=6)
%ENDBLOCK species_pot

SYMMETRY_TOL :     0.001000

%BLOCK symmetry_ops
# Symm. op. 1       E
          1.000000000000000       0.000000000000000       0.000000000000000
          0.000000000000000       1.000000000000000       0.000000000000000
          0.000000000000000       0.000000000000000       1.000000000000000
          0.000000000000000       0.000000000000000       0.000000000000000
%ENDBLOCK symmetry_ops

kpoint_mp_grid :    4   4   4

