#######################################################
#CASTEP cell file: CuVac-107-prod.cell
#Created using the Atomic Simulation Environment (ASE)#
#######################################################

%BLOCK LATTICE_CART
10.818734  0.000000  0.000000
 0.000000 10.818734  0.000000
 0.000000  0.000000 10.818734
%ENDBLOCK LATTICE_CART

%BLOCK POSITIONS_ABS
Cu -0.007009 -0.007009 -0.007009
Cu -0.014345  1.792640  1.792640
Cu  1.792640 -0.014345  1.792640
Cu  1.792640  1.792640 -0.014345
Cu -0.009561 -0.009561  3.606245
Cu -0.014345  1.792640  5.419849
Cu  1.792640 -0.014345  5.419849
Cu  1.790828  1.790828  3.606245
Cu -0.007009 -0.007009  7.219498
Cu -0.008315  1.796684  9.015611
Cu  1.796684 -0.008315  9.015611
Cu  1.792640  1.792640  7.226835
Cu -0.009561  3.606245 -0.009561
Cu -0.014345  5.419849  1.792640
Cu  1.790828  3.606245  1.790828
Cu  1.792640  5.419849 -0.014345
Cu -0.039271  3.606245  3.606245
Cu -0.014345  5.419849  5.419849
Cu  1.790828  3.606245  5.421661
Cu  1.790828  5.421661  3.606245
Cu -0.009561  3.606245  7.222050
Cu -0.008315  5.415805  9.015611
Cu  1.788757  3.606245  9.015611
Cu  1.792640  5.419849  7.226835
Cu -0.007009  7.219498 -0.007009
Cu -0.008315  9.015611  1.796684
Cu  1.792640  7.226835  1.792640
Cu  1.796684  9.015611 -0.008315
Cu -0.009561  7.222050  3.606245
Cu -0.008315  9.015611  5.415805
Cu  1.792640  7.226835  5.419849
Cu  1.788757  9.015611  3.606245
Cu -0.007009  7.219498  7.219498
Cu -0.005633  9.015611  9.015611
Cu  1.796684  7.220805  9.015611
Cu  1.796684  9.015611  7.220805
Cu  3.606245 -0.009561 -0.009561
Cu  3.606245  1.790828  1.790828
Cu  5.419849 -0.014345  1.792640
Cu  5.419849  1.792640 -0.014345
Cu  3.606245 -0.039271  3.606245
Cu  3.606245  1.790828  5.421661
Cu  5.419849 -0.014345  5.419849
Cu  5.421661  1.790828  3.606245
Cu  3.606245 -0.009561  7.222050
Cu  3.606245  1.788757  9.015611
Cu  5.415805 -0.008315  9.015611
Cu  5.419849  1.792640  7.226835
Cu  3.606245  3.606245 -0.039271
Cu  3.606245  5.421661  1.790828
Cu  5.421661  3.606245  1.790828
Cu  5.419849  5.419849 -0.014345
Cu  3.606245  5.421661  5.421661
Cu  5.421661  3.606245  5.421661
Cu  5.421661  5.421661  3.606245
Cu  3.606245  3.606245  7.251760
Cu  3.606245  5.423733  9.015611
Cu  5.423733  3.606245  9.015611
Cu  5.419849  5.419849  7.226835
Cu  3.606245  7.222050 -0.009561
Cu  3.606245  9.015611  1.788757
Cu  5.419849  7.226835  1.792640
Cu  5.415805  9.015611 -0.008315
Cu  3.606245  7.251760  3.606245
Cu  3.606245  9.015611  5.423733
Cu  5.419849  7.226835  5.419849
Cu  5.423733  9.015611  3.606245
Cu  3.606245  7.222050  7.222050
Cu  3.606245  9.015611  9.015611
Cu  5.415805  7.220805  9.015611
Cu  5.415805  9.015611  7.220805
Cu  7.219498 -0.007009 -0.007009
Cu  7.226835  1.792640  1.792640
Cu  9.015611 -0.008315  1.796684
Cu  9.015611  1.796684 -0.008315
Cu  7.222050 -0.009561  3.606245
Cu  7.226835  1.792640  5.419849
Cu  9.015611 -0.008315  5.415805
Cu  9.015611  1.788757  3.606245
Cu  7.219498 -0.007009  7.219498
Cu  7.220805  1.796684  9.015611
Cu  9.015611 -0.005633  9.015611
Cu  9.015611  1.796684  7.220805
Cu  7.222050  3.606245 -0.009561
Cu  7.226835  5.419849  1.792640
Cu  9.015611  3.606245  1.788757
Cu  9.015611  5.415805 -0.008315
Cu  7.251760  3.606245  3.606245
Cu  7.226835  5.419849  5.419849
Cu  9.015611  3.606245  5.423733
Cu  9.015611  5.423733  3.606245
Cu  7.222050  3.606245  7.222050
Cu  7.220805  5.415805  9.015611
Cu  9.015611  3.606245  9.015611
Cu  9.015611  5.415805  7.220805
Cu  7.219498  7.219498 -0.007009
Cu  7.220805  9.015611  1.796684
Cu  9.015611  7.220805  1.796684
Cu  9.015611  9.015611 -0.005633
Cu  7.222050  7.222050  3.606245
Cu  7.220805  9.015611  5.415805
Cu  9.015611  7.220805  5.415805
Cu  9.015611  9.015611  3.606245
Cu  7.219498  7.219498  7.219498
Cu  7.218122  9.015611  9.015611
Cu  9.015611  7.218122  9.015611
Cu  9.015611  9.015611  7.218122
%ENDBLOCK POSITIONS_ABS

