#######################################################
#CASTEP cell file: CuVac-107-reac.cell
#Created using the Atomic Simulation Environment (ASE)#
#######################################################

%BLOCK LATTICE_CART
10.818734  0.000000  0.000000
 0.000000 10.818734  0.000000
 0.000000  0.000000 10.818734
%ENDBLOCK LATTICE_CART

%BLOCK POSITIONS_ABS
Cu -0.005669  0.000000  0.000000
Cu -0.007079  1.796044  1.796044
Cu  1.796684  0.000000  1.794700
Cu  1.796684  1.794700  0.000000
Cu -0.008422  0.000000  3.599807
Cu -0.009155  1.793968  5.409367
Cu  1.788924 -0.000000  5.409367
Cu  1.792694  1.788876  3.595816
Cu -0.008422  0.000000  7.218927
Cu -0.007079  1.796044  9.022690
Cu  1.796684  0.000000  9.024034
Cu  1.792694  1.788876  7.222918
Cu -0.008422  3.599807  0.000000
Cu -0.009155  5.409367  1.793968
Cu  1.792694  3.595816  1.788876
Cu  1.788924  5.409367  0.000000
Cu -0.014247  3.595816  3.595816
Cu -0.039124  5.409367  5.409367
Cu  1.791141  3.594263  5.409367
Cu  1.791141  5.409367  3.594263
Cu -0.014247  3.595816  7.222918
Cu -0.009155  5.409367  9.024766
Cu  1.792694  3.595816  9.029858
Cu  1.791141  5.409367  7.224470
Cu -0.008422  7.218927  0.000000
Cu -0.007079  9.022690  1.796044
Cu  1.792694  7.222918  1.788876
Cu  1.796684  9.024034  0.000000
Cu -0.014247  7.222918  3.595816
Cu -0.009155  9.024766  5.409367
Cu  1.791141  7.224470  5.409367
Cu  1.792694  9.029858  3.595816
Cu -0.014247  7.222918  7.222918
Cu -0.007079  9.022690  9.022690
Cu  1.792694  7.222918  9.029858
Cu  1.792694  9.029858  7.222918
Cu  3.606245  0.000000  0.000000
Cu  3.606245  1.793968  1.793968
Cu  5.415805  0.000000  1.794700
Cu  5.415805  1.794700  0.000000
Cu  3.606245 -0.000000  3.592046
Cu  3.606245  1.763999  5.409367
Cu  5.423565 -0.000000  5.409367
Cu  5.419795  1.788876  3.595816
Cu  3.606245 -0.000000  7.226688
Cu  3.606245  1.793968  9.024766
Cu  5.415805 -0.000000  9.024034
Cu  5.419795  1.788876  7.222918
Cu  3.606245  3.592046  0.000000
Cu  3.606245  5.409367  1.763999
Cu  5.419795  3.595816  1.788876
Cu  5.423565  5.409367 -0.000000
Cu  3.606245  3.594263  3.594263
Cu  5.421348  3.594263  5.409367
Cu  5.421348  5.409367  3.594263
Cu  3.606245  3.594263  7.224470
Cu  3.606245  5.409367  9.054735
Cu  5.419795  3.595816  9.029858
Cu  5.421348  5.409367  7.224470
Cu  3.606245  7.226688 -0.000000
Cu  3.606245  9.024766  1.793968
Cu  5.419795  7.222918  1.788876
Cu  5.415805  9.024034  0.000000
Cu  3.606245  7.224470  3.594263
Cu  3.606245  9.054735  5.409367
Cu  5.421348  7.224470  5.409367
Cu  5.419795  9.029858  3.595816
Cu  3.606245  7.224470  7.224470
Cu  3.606245  9.024766  9.024766
Cu  5.419795  7.222918  9.029858
Cu  5.419795  9.029858  7.222918
Cu  7.218159  0.000000  0.000000
Cu  7.219568  1.796044  1.796044
Cu  9.015611  0.000000  1.797453
Cu  9.015611  1.797453  0.000000
Cu  7.220911 -0.000000  3.599807
Cu  7.221644  1.793968  5.409367
Cu  9.015611  0.000000  5.409367
Cu  9.015611  1.794700  3.599807
Cu  7.220911 -0.000000  7.218927
Cu  7.219568  1.796044  9.022690
Cu  9.015611  0.000000  9.021281
Cu  9.015611  1.794700  7.218927
Cu  7.220911  3.599807 -0.000000
Cu  7.221644  5.409367  1.793968
Cu  9.015611  3.599807  1.794700
Cu  9.015611  5.409367  0.000000
Cu  7.226736  3.595816  3.595816
Cu  7.251613  5.409367  5.409367
Cu  9.015611  3.592046  5.409367
Cu  9.015611  5.409367  3.592046
Cu  7.226736  3.595816  7.222918
Cu  7.221644  5.409367  9.024766
Cu  9.015611  3.599807  9.024034
Cu  9.015611  5.409367  7.226688
Cu  7.220911  7.218927  0.000000
Cu  7.219568  9.022690  1.796044
Cu  9.015611  7.218927  1.794700
Cu  9.015611  9.021281  0.000000
Cu  7.226736  7.222918  3.595816
Cu  7.221644  9.024766  5.409367
Cu  9.015611  7.226688  5.409367
Cu  9.015611  9.024034  3.599807
Cu  7.226736  7.222918  7.222918
Cu  7.219568  9.022690  9.022690
Cu  9.015611  7.218927  9.024034
Cu  9.015611  9.024034  7.218927
%ENDBLOCK POSITIONS_ABS

