#######################################################
#CASTEP cell file: CuVac-107.cell
#Created using the Atomic Simulation Environment (ASE)#
#######################################################

%BLOCK LATTICE_CART
10.818734  0.000000  0.000000
 0.000000 10.818734  0.000000
 0.000000  0.000000 10.818734
%ENDBLOCK LATTICE_CART

%BLOCK POSITIONS_ABS
Cu  0.000000  0.000000  0.000000
Cu  0.000000  1.803122  1.803122
Cu  1.803122  0.000000  1.803122
Cu  1.803122  1.803122  0.000000
Cu  0.000000  0.000000  3.606245
Cu  0.000000  1.803122  5.409367
Cu  1.803122  0.000000  5.409367
Cu  1.803122  1.803122  3.606245
Cu  0.000000  0.000000  7.212489
Cu  0.000000  1.803122  9.015611
Cu  1.803122  0.000000  9.015611
Cu  1.803122  1.803122  7.212489
Cu  0.000000  3.606245  0.000000
Cu  0.000000  5.409367  1.803122
Cu  1.803122  3.606245  1.803122
Cu  1.803122  5.409367  0.000000
Cu  0.000000  3.606245  3.606245
Cu  0.000000  5.409367  5.409367
Cu  1.803122  3.606245  5.409367
Cu  1.803122  5.409367  3.606245
Cu  0.000000  3.606245  7.212489
Cu  0.000000  5.409367  9.015611
Cu  1.803122  3.606245  9.015611
Cu  1.803122  5.409367  7.212489
Cu  0.000000  7.212489  0.000000
Cu  0.000000  9.015611  1.803122
Cu  1.803122  7.212489  1.803122
Cu  1.803122  9.015611  0.000000
Cu  0.000000  7.212489  3.606245
Cu  0.000000  9.015611  5.409367
Cu  1.803122  7.212489  5.409367
Cu  1.803122  9.015611  3.606245
Cu  0.000000  7.212489  7.212489
Cu  0.000000  9.015611  9.015611
Cu  1.803122  7.212489  9.015611
Cu  1.803122  9.015611  7.212489
Cu  3.606245  0.000000  0.000000
Cu  3.606245  1.803122  1.803122
Cu  5.409367  0.000000  1.803122
Cu  5.409367  1.803122  0.000000
Cu  3.606245  0.000000  3.606245
Cu  3.606245  1.803122  5.409367
Cu  5.409367  0.000000  5.409367
Cu  5.409367  1.803122  3.606245
Cu  3.606245  0.000000  7.212489
Cu  3.606245  1.803122  9.015611
Cu  5.409367  0.000000  9.015611
Cu  5.409367  1.803122  7.212489
Cu  3.606245  3.606245  0.000000
Cu  3.606245  5.409367  1.803122
Cu  5.409367  3.606245  1.803122
Cu  5.409367  5.409367  0.000000
Cu  3.606245  3.606245  3.606245
Cu  5.409367  3.606245  5.409367
Cu  5.409367  5.409367  3.606245
Cu  3.606245  3.606245  7.212489
Cu  3.606245  5.409367  9.015611
Cu  5.409367  3.606245  9.015611
Cu  5.409367  5.409367  7.212489
Cu  3.606245  7.212489  0.000000
Cu  3.606245  9.015611  1.803122
Cu  5.409367  7.212489  1.803122
Cu  5.409367  9.015611  0.000000
Cu  3.606245  7.212489  3.606245
Cu  3.606245  9.015611  5.409367
Cu  5.409367  7.212489  5.409367
Cu  5.409367  9.015611  3.606245
Cu  3.606245  7.212489  7.212489
Cu  3.606245  9.015611  9.015611
Cu  5.409367  7.212489  9.015611
Cu  5.409367  9.015611  7.212489
Cu  7.212489  0.000000  0.000000
Cu  7.212489  1.803122  1.803122
Cu  9.015611  0.000000  1.803122
Cu  9.015611  1.803122  0.000000
Cu  7.212489  0.000000  3.606245
Cu  7.212489  1.803122  5.409367
Cu  9.015611  0.000000  5.409367
Cu  9.015611  1.803122  3.606245
Cu  7.212489  0.000000  7.212489
Cu  7.212489  1.803122  9.015611
Cu  9.015611  0.000000  9.015611
Cu  9.015611  1.803122  7.212489
Cu  7.212489  3.606245  0.000000
Cu  7.212489  5.409367  1.803122
Cu  9.015611  3.606245  1.803122
Cu  9.015611  5.409367  0.000000
Cu  7.212489  3.606245  3.606245
Cu  7.212489  5.409367  5.409367
Cu  9.015611  3.606245  5.409367
Cu  9.015611  5.409367  3.606245
Cu  7.212489  3.606245  7.212489
Cu  7.212489  5.409367  9.015611
Cu  9.015611  3.606245  9.015611
Cu  9.015611  5.409367  7.212489
Cu  7.212489  7.212489  0.000000
Cu  7.212489  9.015611  1.803122
Cu  9.015611  7.212489  1.803122
Cu  9.015611  9.015611  0.000000
Cu  7.212489  7.212489  3.606245
Cu  7.212489  9.015611  5.409367
Cu  9.015611  7.212489  5.409367
Cu  9.015611  9.015611  3.606245
Cu  7.212489  7.212489  7.212489
Cu  7.212489  9.015611  9.015611
Cu  9.015611  7.212489  9.015611
Cu  9.015611  9.015611  7.212489
%ENDBLOCK POSITIONS_ABS

