#######################################################
#CASTEP cell file: CuVacNebIm1.cell
#Created using the Atomic Simulation Environment (ASE)#
#######################################################

%BLOCK LATTICE_CART
 7.253359  0.000000  0.000000
 0.000000  7.253359  0.000000
 0.000000  0.000000  7.253359
%ENDBLOCK LATTICE_CART

%BLOCK POSITIONS_ABS
Cu  0.002935  0.002946 -0.000000
Cu  3.637229  1.816322  1.826818
Cu  1.816309  3.637218  1.826821
Cu  1.816294  1.816305  3.626678
Cu  0.010556  0.010542  3.626679
Cu  3.637233  1.816322  5.426539
Cu  1.816305  0.010543  5.426537
Cu  2.720050  2.720053  3.626679
Cu  3.629619  3.623736 -0.000001
Cu  3.629631  5.437035  1.819225
Cu  1.823909  3.616139  1.834467
Cu  1.816290  5.437058  0.000004
Cu  3.637240  3.616145  3.626681
Cu  3.629630  5.437035  5.434136
Cu  1.823907  3.616137  5.418891
Cu  1.823921  5.429420  3.626678
Cu  3.623742  0.002950  3.626683
Cu  3.616128  1.823923  1.834453
Cu  5.437051  0.002941  1.819203
Cu  5.437065  1.816299  3.626680
Cu  3.616121  0.010544  3.626677
Cu  3.616129  1.823925  5.418905
Cu  5.437055  0.002946  5.434156
Cu  5.429433  1.823938  3.626681
Cu  3.623737  3.623731  0.000003
Cu  3.623729  5.429434  1.826860
Cu  5.429448  3.623739  1.826845
Cu  5.437068  5.437063  0.000005
Cu  3.623729  5.429435  5.426502
Cu  5.429452  3.623734  5.426510
Cu  5.429437  5.429422  3.626677
%ENDBLOCK POSITIONS_ABS

