#######################################################
#CASTEP cell file: CuVacNebIm2.cell
#Created using the Atomic Simulation Environment (ASE)#
#######################################################

%BLOCK LATTICE_CART
 7.253359  0.000000  0.000000
 0.000000  7.253359  0.000000
 0.000000  0.000000  7.253359
%ENDBLOCK LATTICE_CART

%BLOCK POSITIONS_ABS
Cu  0.005886  0.005882 -0.000001
Cu  7.274468  1.813364  1.834461
Cu  1.813345  7.274460  1.834433
Cu  1.813341  1.813352 -0.000000
Cu  0.021098  0.021106  3.626682
Cu  7.274473  1.813364  5.418893
Cu  1.813338  0.021103  5.418925
Cu  3.605579  3.605583  3.626677
Cu  7.259248  3.620798 -0.000002
Cu  7.259236  5.439993  1.819241
Cu  1.813331  3.605575  1.834455
Cu  1.813342  5.440013 -0.000000
Cu  7.274460  3.605582  3.626682
Cu  7.259238  5.439992  5.434119
Cu  1.813327  3.605576  5.418905
Cu  1.813327  5.440002  3.626679
Cu  3.620793  0.005883  7.253364
Cu  3.605568  1.813352  1.834450
Cu  5.440017  0.005874  1.819230
Cu  5.440017  1.813348  0.000002
Cu  3.605584  0.021100  3.626677
Cu  3.605567  1.813352  5.418913
Cu  5.440022  0.005876  5.434130
Cu  5.440029  1.813365  3.626680
Cu  3.620790  3.620800  0.000003
Cu  3.620803  5.440007  1.819225
Cu  5.440025  3.620805  1.819243
Cu  5.440013  5.440015  0.000003
Cu  3.620801  5.440007  5.434134
Cu  5.440034  3.620806  5.434111
Cu  5.440030  5.439996  3.626677
%ENDBLOCK POSITIONS_ABS

