#######################################################
#CASTEP cell file: CuVacNebIm2.cell
#Created using the Atomic Simulation Environment (ASE)#
#######################################################

%BLOCK LATTICE_CART
 7.253359  0.000000  0.000000
 0.000000  7.253359  0.000000
 0.000000  0.000000  7.253359
%ENDBLOCK LATTICE_CART

%BLOCK POSITIONS_ABS
Cu  0.005886  0.005882 -0.000001
Cu  0.021108  1.813364  1.834461
Cu  1.813345  0.021101  1.834433
Cu  1.813341  1.813352  7.253359
Cu  0.021098  0.021106  3.626682
Cu  0.021114  1.813364  5.418893
Cu  1.813338  0.021103  5.418925
Cu  3.605579  3.605583  3.626677
Cu  0.005888  3.620798 -0.000002
Cu  0.005876  5.439993  1.819241
Cu  1.813331  3.605575  1.834455
Cu  1.813342  5.440013 -0.000000
Cu  0.021101  3.605582  3.626682
Cu  0.005879  5.439992  5.434119
Cu  1.813327  3.605576  5.418905
Cu  1.813327  5.440002  3.626679
Cu  3.620793  0.005883  0.000004
Cu  3.605568  1.813352  1.834450
Cu  5.440017  0.005874  1.819230
Cu  5.440017  1.813348  7.253362
Cu  3.605584  0.021100  3.626677
Cu  3.605567  1.813352  5.418913
Cu  5.440022  0.005876  5.434130
Cu  5.440029  1.813365  3.626680
Cu  3.620790  3.620800  0.000003
Cu  3.620803  5.440007  1.819225
Cu  5.440025  3.620805  1.819243
Cu  5.440013  5.440015  0.000003
Cu  3.620801  5.440007  5.434134
Cu  5.440034  3.620806  5.434111
Cu  5.440030  5.439996  3.626677
%ENDBLOCK POSITIONS_ABS

%BLOCK SPECIES_POT
Cu 3|2.2|2.0|1.0|10|12|13|40:41:32(qc=6)
%ENDBLOCK SPECIES_POT

%BLOCK SYMMETRY_OPS
1.0 0.0 0.0
0.0 1.0 0.0
0.0 0.0 1.0
0.0 0.0 0.0
%ENDBLOCK SYMMETRY_OPS

SYMMETRY_TOL: 0.001 
FIX_COM: TRUE
%BLOCK CELL_CONSTRAINTS
0   0   0
0   0   0
%ENDBLOCK CELL_CONSTRAINTS

KPOINT_MP_GRID: 4 4 4
%BLOCK SPECIES_GAMMA
radsectesla
Cu         71117890.00
%ENDBLOCK SPECIES_GAMMA

