#######################################################
#CASTEP cell file: AlAu_cconv_in/AlAu_cut_200.0_kpn_2x2x1/AlAu_cut_200.0_kpn_2x2x1.cell
#Created using the Atomic Simulation Environment (ASE)#
#######################################################

%BLOCK LATTICE_CART
 5.727565  0.000000  0.000000
 0.000000  5.727565  0.000000
 0.000000  0.000000 13.750000
%ENDBLOCK LATTICE_CART

%BLOCK POSITIONS_ABS
Al  0.024836 -0.006913  4.032384
Al  2.939933 -0.011708  3.988293
Al  0.078961  2.902154  3.976526
Al  2.890910  2.840611  3.976714
Al  1.443989  1.336227  5.938754
Al  4.267560  1.381249  6.040712
Al  1.386490  4.225059  6.098282
Al  4.284385  4.299050  5.953763
Al -0.027219  0.005546  7.992450
Al  2.882567 -0.030032  8.035415
Al -0.030085  2.956396  8.049325
Al  2.810896  2.904909  7.988958
Au  1.442334  1.333907  9.683591
%ENDBLOCK POSITIONS_ABS

KPOINTS_MP_GRID: 2 2 1
