#######################################################
#CASTEP cell file: /home/phony_stark/Desktop/RAL/eCSE/neb-perftests/copper-vacancy/cuvac-geomopt-initial/initial.cell
#Created using the Atomic Simulation Environment (ASE)#
#######################################################

%BLOCK LATTICE_CART
 7.179647 -0.000000  0.000000
-0.000000  7.179647  0.000000
-0.000000 -0.000000  7.179647
%ENDBLOCK LATTICE_CART

%BLOCK POSITIONS_FRAC
Cu  0.000000  0.000000  0.000000
Cu  1.000000  0.250294  0.250294
Cu  0.250294  1.000000  0.250294
Cu  0.250294  0.250294  0.000000
Cu  0.000000  0.000000  0.500000
Cu  1.000000  0.250294  0.749706
Cu  0.250294  0.000000  0.749706
Cu  0.251518  0.251518  0.500000
Cu  1.000000  0.500000  0.000000
Cu  1.000000  0.749706  0.250294
Cu  0.251518  0.500000  0.251518
Cu  0.250294  0.749706  0.000000
Cu  1.000000  0.500000  0.500000
Cu  1.000000  0.749706  0.749706
Cu  0.251518  0.500000  0.748482
Cu  0.251518  0.748482  0.500000
Cu  0.500000  0.000000  1.000000
Cu  0.500000  0.251518  0.251518
Cu  0.749706  0.000000  0.250294
Cu  0.749706  0.250294  0.000000
Cu  0.500000  0.000000  0.500000
Cu  0.500000  0.251518  0.748482
Cu  0.749706  0.000000  0.749706
Cu  0.748482  0.251518  0.500000
Cu  0.500000  0.500000  0.000000
Cu  0.500000  0.748482  0.251518
Cu  0.748482  0.500000  0.251518
Cu  0.749706  0.749706  0.000000
Cu  0.500000  0.748482  0.748482
Cu  0.748482  0.500000  0.748482
Cu  0.748482  0.748482  0.500000
%ENDBLOCK POSITIONS_FRAC

FIX_ALL_CELL: TRUE
KPOINT_MP_GRID: 4 4 4
