# CELL file written 14:08:52 (GMT+1.0) 10th August 2021 from run CuBulk

%BLOCK lattice_cart
   ANG
       7.25335934556551       0.254870745667188E-09   0.228005744783128E-09
      0.254870654206173E-09    7.25335934556551      -0.703635559512565E-10
      0.228005732966253E-09  -0.703635359485160E-10    7.25335934556551    
%ENDBLOCK lattice_cart

%BLOCK cell_constraints
      1   1   1
      0   0   0
%ENDBLOCK cell_constraints

%BLOCK positions_frac
   Cu             1.000000023144810       0.000000100424622      -0.000000002398932
   Cu             1.000000029710048       0.249999985476563       0.250000012551112
   Cu             0.249999996850907       0.000000105572890       0.250000014796982
   Cu             0.250000007659551       0.249999990902307       0.000000000554647
   Cu             0.000000017547499       0.000000097622782       0.499999998763442
   Cu             0.000000019773630       0.249999983052836       0.749999984595299
   Cu             0.249999988060358       0.000000088122948       0.749999987795819
   Cu             0.250000013305996       0.249999993648255       0.500000001832244
   Cu             1.000000016210032       0.499999902124152       0.000000006824103
   Cu             0.000000023411663       0.750000021508194       0.250000013382294
   Cu             0.250000016147651       0.499999882498614       0.250000013329952
   Cu             0.250000000008470       0.750000012314968       0.000000003463839
   Cu             0.000000015222319       0.499999906230108       0.499999990533447
   Cu             0.000000013151477       0.750000021741370       0.749999984269146
   Cu             0.250000008866256       0.499999908098017       0.749999990619872
   Cu             0.250000006127951       0.750000016053027       0.499999994419187
   Cu             0.499999977918864       0.000000111625084       0.000000010839238
   Cu             0.499999974315903       0.249999994179708       0.250000015941046
   Cu             0.749999998631321       0.000000128318173       0.250000024985232
   Cu             0.750000000992114       0.249999986170353       0.000000007176402
   Cu             0.499999980570245       0.000000106348732       0.499999989313778
   Cu             0.499999986774206       0.249999993212747       0.749999980842450
   Cu             0.750000003763586       0.000000108146191       0.749999981332873
   Cu             0.749999992814922       0.249999988535617       0.499999998986395
   Cu             0.499999978738285       0.499999884721563       0.000000013258199
   Cu             0.499999977622430       0.750000010594857       0.250000016002712
   Cu             0.749999981165790       0.499999871890165       0.250000022209911
   Cu             0.750000003322705       0.750000008737749      -0.000000003219858
   Cu             0.499999982423361       0.499999886122027       0.499999985038857
   Cu             0.499999984074986       0.750000006670473       0.749999974453442
   Cu             0.749999983659035       0.499999888840278       0.749999985371983
   Cu             0.749999998013628       0.750000010494631       0.500000002134885
%ENDBLOCK positions_frac

FIX_COM : true

%BLOCK species_gamma
   radsectesla
   Cu         71117890.00    
%ENDBLOCK species_gamma

%BLOCK species_pot
   Cu      3|2.2|2.0|1.0|10|12|13|40:41:32(qc=6)
%ENDBLOCK species_pot

SYMMETRY_TOL :     0.001000

%BLOCK symmetry_ops
# Symm. op. 1       E
          1.000000000000000       0.000000000000000       0.000000000000000
          0.000000000000000       1.000000000000000       0.000000000000000
          0.000000000000000       0.000000000000000       1.000000000000000
          0.000000000000000       0.000000000000000       0.000000000000000
%ENDBLOCK symmetry_ops

kpoint_mp_grid :    4   4   4

