#######################################################
#CASTEP cell file: Cu_cconv_in/Cu_cut_300.0_kpn_5x5x5/Cu_cut_300.0_kpn_5x5x5.cell
#Created using the Atomic Simulation Environment (ASE)#
#######################################################

%BLOCK LATTICE_CART
 7.220000  0.000000  0.000000
 0.000000  7.220000  0.000000
 0.000000  0.000000  7.220000
%ENDBLOCK LATTICE_CART

%BLOCK POSITIONS_ABS
Cu  0.024836 -0.006913  0.032384
Cu  0.076151  1.793292  1.793293
Cu  1.883961  0.038372  1.781526
Cu  1.832128  1.781829 -0.023286
Cu  0.012098 -0.095664  3.523754
Cu -0.028114  1.754358  5.430712
Cu  1.759599 -0.070615  5.488282
Cu  1.793711  1.808376  3.538763
Cu -0.027219  3.615546 -0.057550
Cu  0.018785  5.384968  1.790415
Cu  1.774915  3.702614  1.804325
Cu  1.752114  5.456127 -0.061042
Cu  0.010443  3.512016  3.543591
Cu  0.009843  5.451923  5.423568
Cu  1.799218  3.594945  5.341074
Cu  1.769008  5.391968  3.662856
Cu  3.627181 -0.088152  0.016204
Cu  3.590746  1.771154  1.835584
Cu  5.466550  0.046564  1.763039
Cu  5.399539  1.821563  0.048777
Cu  3.586041 -0.009283  3.554683
Cu  3.550190  1.845626  5.482812
Cu  5.411399  0.050177  5.433082
Cu  5.382744  1.823070  3.686902
Cu  3.608209  3.688232 -0.130987
Cu  3.651095  5.419352  1.790050
Cu  5.419588  3.510622  1.794016
Cu  5.432856  5.488895 -0.025914
Cu  3.569575  3.584912  3.655770
Cu  3.626438  5.388512  5.440663
Cu  5.419854  3.658432  5.379897
Cu  5.398617  5.395395  3.536824
%ENDBLOCK POSITIONS_ABS

KPOINTS_MP_GRID: 5 5 5
