# CELL file written 17:28:57 (GMT+1.0) 10th August 2021 from run initial

%BLOCK lattice_cart
   ANG
       7.25335934556551        0.00000000000000        0.00000000000000    
       0.00000000000000        7.25335934556551        0.00000000000000    
       0.00000000000000        0.00000000000000        7.25335934556551    
%ENDBLOCK lattice_cart

%BLOCK positions_frac
   Cu            -0.000002206331592       0.000001343574386       0.000000092245681
   Cu             0.999998716200749       0.250818961943672       0.250804581992484
   Cu             0.250818153301212       0.999996801135814       0.250809316199464
   Cu             0.250814320591265       0.250815921855929      -0.000000536120295
   Cu             0.000002101988300      -0.000002916949493       0.499999591780492
   Cu             0.999998960028748       0.250818994678565       0.749195497481556
   Cu             0.250817862194771      -0.000002285061332       0.749190569859998
   Cu             0.252920235356883       0.252920487130213       0.500000338507856
   Cu             0.999998755632423       0.499999117649879      -0.000000123129995
   Cu             1.000003582987297       0.749180801830739       0.250809243512264
   Cu             0.252915483077248       0.500003152772611       0.252914349726646
   Cu             0.250813095571442       0.749184363314205       0.000000982863522
   Cu             1.000002627641133       0.500003761839072       0.500000099764283
   Cu             1.000003012100849       0.749180854826604       0.749191136874216
   Cu             0.252915519147056       0.500002411676666       0.747084995099243
   Cu             0.252919238881317       0.747079733699674       0.499999535386755
   Cu             0.500001628723871       0.000002506592275       1.000000450318568
   Cu             0.500001056992795       0.252916331843690       0.252911230918036
   Cu             0.749181878650361       0.000001110911280       0.250804529948707
   Cu             0.749185670336502       0.250814814728090      -0.000000205233484
   Cu             0.499997022823275      -0.000001577594134       0.499999637131209
   Cu             0.500001511221285       0.252917077861378       0.747087921235846
   Cu             0.749182141398573       0.000002322344803       0.749195291112322
   Cu             0.747079519685905       0.252918909977530       0.500000369221417
   Cu             0.500000668416109       0.499997666950623       0.000000430024707
   Cu             0.499996699918103       0.747083034753983       0.252916434181310
   Cu             0.747084223414472       0.499998998422639       0.252909840019884
   Cu             0.749186872712558       0.749185481680340       0.000000977307605
   Cu             0.499996993834121       0.747083194183584       0.747084113104487
   Cu             0.747084128928567       0.499997573525284       0.747089680437088
   Cu             0.747080524574402       0.747081047901431       0.499999628228131
%ENDBLOCK positions_frac

FIX_COM : false

%BLOCK species_gamma
   radsectesla
   Cu         71117890.00    
%ENDBLOCK species_gamma

%BLOCK species_pot
   Cu      3|2.2|2.0|1.0|10|12|13|40:41:32(qc=6)
%ENDBLOCK species_pot

kpoint_mp_grid :    4   4   4

