#######################################################
#CASTEP cell file: AlAu.cell
#Created using the Atomic Simulation Environment (ASE)#
#######################################################

%BLOCK LATTICE_CART
 5.727565  0.000000  0.000000
 0.000000  5.727565  0.000000
 0.000000  0.000000 13.750000
%ENDBLOCK LATTICE_CART

%BLOCK POSITIONS_ABS
Al  0.000000  0.000000  4.000000
Al  2.863782  0.000000  4.000000
Al  0.000000  2.863782  4.000000
Al  2.863782  2.863782  4.000000
Al  1.431891  1.431891  6.025000
Al  4.295674  1.431891  6.025000
Al  1.431891  4.295674  6.025000
Al  4.295674  4.295674  6.025000
Al  0.000000  0.000000  8.050000
Al  2.863782  0.000000  8.050000
Al  0.000000  2.863782  8.050000
Al  2.863782  2.863782  8.050000
Au  1.431891  1.431891  9.750000
%ENDBLOCK POSITIONS_ABS

kpoint_mp_grid: 7 7 3
fix_com: True

%BLOCK CELL_CONSTRAINTS
1 1 0
0 0 0
%ENDBLOCK CELL_CONSTRAINTS

