# CELL file written 17:52:35 (GMT+1.0) 11th August 2021 from run AlAu

%BLOCK lattice_cart
   ANG
       5.60841317087087       0.869210749197549E-10  -0.192671253965085E-09
      0.869210729553499E-10    5.60841317087087      -0.615311223141334E-11
      0.134194763918516E-08   0.689693574831845E-09    13.7500000000000    
%ENDBLOCK lattice_cart

%BLOCK cell_constraints
      1   1   0
      0   0   0
%ENDBLOCK cell_constraints

%BLOCK positions_frac
   Al            -0.000206148106293      -0.000206147002331       0.289861186291535
   Al             0.500206067793653      -0.000206147605004       0.289861189626636
   Al            -0.000206147077744       0.500206066175644       0.289861189197332
   Al             0.500206068487453       0.500206064881503       0.289861192886682
   Al             0.249999970285879       0.249999968805620       0.438296475158663
   Al             0.750000018675537       0.249999967980580       0.438758488260415
   Al             0.249999969942467       0.750000017660723       0.438758485840393
   Al             0.750000019066607       0.750000018349965       0.437919820726163
   Al            -0.002861576477044      -0.002861577644442       0.587039314386887
   Al             0.502861499423399      -0.002861579881218       0.587039308309741
   Al            -0.002861580200826       0.502861497468492       0.587039307554126
   Al             0.502861500380224       0.502861498041518       0.587039305484985
   Au             0.249999944969592       0.249999959931854       0.705937463549171
%ENDBLOCK positions_frac

FIX_COM : true

%BLOCK species_pot
   Al      3|2.2|2.2|1.4|4|5|5|30:31:32U2U2
   Au      3|2.4|9|10|11|50U:60:51:52:43(qc=6)
%ENDBLOCK species_pot

SYMMETRY_TOL :     0.001000

%BLOCK symmetry_ops
# Symm. op. 1       E
          1.000000000000000       0.000000000000000       0.000000000000000
          0.000000000000000       1.000000000000000       0.000000000000000
          0.000000000000000       0.000000000000000       1.000000000000000
          0.000000000000000       0.000000000000000       0.000000000000000
%ENDBLOCK symmetry_ops

kpoint_mp_grid :    7   7   3

