#######################################################
#CASTEP cell file: CuBulk.cell
#Created using the Atomic Simulation Environment (ASE)#
#######################################################

%BLOCK LATTICE_CART
 7.230000 -0.000000  0.000000
-0.000000  7.230000  0.000000
-0.000000 -0.000000  7.230000
%ENDBLOCK LATTICE_CART

%BLOCK POSITIONS_FRAC
Cu  1.000000  0.000000  0.000000
Cu  1.000000  0.250000  0.250000
Cu  0.250000  0.000000  0.250000
Cu  0.250000  0.250000  0.000000
Cu  0.000000  0.000000  0.500000
Cu  0.000000  0.250000  0.750000
Cu  0.250000  0.000000  0.750000
Cu  0.250000  0.250000  0.500000
Cu  1.000000  0.500000  0.000000
Cu  0.000000  0.750000  0.250000
Cu  0.250000  0.500000  0.250000
Cu  0.250000  0.750000  0.000000
Cu  0.000000  0.500000  0.500000
Cu  0.000000  0.750000  0.750000
Cu  0.250000  0.500000  0.750000
Cu  0.250000  0.750000  0.500000
Cu  0.500000  0.000000  0.000000
Cu  0.500000  0.250000  0.250000
Cu  0.750000  0.000000  0.250000
Cu  0.750000  0.250000  0.000000
Cu  0.500000  0.000000  0.500000
Cu  0.500000  0.250000  0.750000
Cu  0.750000  0.000000  0.750000
Cu  0.750000  0.250000  0.500000
Cu  0.500000  0.500000  0.000000
Cu  0.500000  0.750000  0.250000
Cu  0.750000  0.500000  0.250000
Cu  0.750000  0.750000  0.000000
Cu  0.500000  0.500000  0.500000
Cu  0.500000  0.750000  0.750000
Cu  0.750000  0.500000  0.750000
Cu  0.750000  0.750000  0.500000
%ENDBLOCK POSITIONS_FRAC

%BLOCK CELL_CONSTRAINTS
1 1 1
0 0 0
%ENDBLOCK CELL_CONSTRAINTS

KPOINT_MP_GRID: 2 2 2
