#######################################################
#CASTEP cell file: ./cuvac-castep-traj/cuvac-castep-2.cell
#Created using the Atomic Simulation Environment (ASE)#
#######################################################

%BLOCK LATTICE_CART
 7.253359  0.000000  0.000000
 0.000000  7.253359  0.000000
 0.000000  0.000000  7.253359
%ENDBLOCK LATTICE_CART

%BLOCK POSITIONS_ABS
H  0.008623  0.008641  0.000074
H  7.271171  1.802958  1.763219
H  1.802944  7.271195  1.763223
H  1.795285  1.795300  0.000049
H  0.043088  0.043111  3.626788
H  7.271166  1.802964  5.490293
H  1.802947  0.017830  5.490292
H  1.957017  1.957028  3.626717
H  7.253883  3.649842  0.000055
H  7.256292  5.490036  1.765875
H  1.718118  3.675380  1.667439
H  1.780436  5.509473  0.000066
H  7.273083  3.660810  3.626798
H  7.256279  5.490039  5.487660
H  1.718109  3.675416  5.586017
H  1.689813  5.548521  3.626812
H  3.649829  0.000552  7.253412
H  3.675371  1.718143  1.667440
H  5.490021  0.002957  1.765874
H  5.509453  1.780453  0.000061
H  3.660800  0.019746  3.626797
H  3.675402  1.718133  5.586009
H  5.490021  0.002942  5.487657
H  5.548497  1.689837  3.626810
H  3.646196  3.646212  0.000049
H  3.635375  5.554262  1.681338
H  5.554234  3.635379  1.681340
H  5.484610  5.484629  0.000073
H  3.635372  5.554242  5.572147
H  5.554218  3.635386  5.572145
H  5.582339  5.582362  3.626786
%ENDBLOCK POSITIONS_ABS

