#######################################################
#CASTEP cell file: ./cuvac-castep-traj/cuvac-castep-3.cell
#Created using the Atomic Simulation Environment (ASE)#
#######################################################

%BLOCK LATTICE_CART
 7.253359  0.000000  0.000000
 0.000000  7.253359  0.000000
 0.000000  0.000000  7.253359
%ENDBLOCK LATTICE_CART

%BLOCK POSITIONS_ABS
H -0.005543 -0.005514  0.000070
H  7.241268  1.803534  1.737795
H  1.803508  7.241300  1.737794
H  1.796931  1.796958  0.000051
H -0.014412 -0.014370  3.626783
H  7.241267  1.803536  5.515701
H  1.803507 -0.012051  5.515700
H  2.180695  2.180691  3.626733
H  7.237392  3.652404  0.000057
H  7.243574  5.475764  1.770117
H  1.722852  3.688287  1.659975
H  1.782049  5.494618  0.000057
H  7.265786  3.675616  3.626801
H  7.243566  5.475768  5.483411
H  1.722836  3.688305  5.593479
H  1.697317  5.522747  3.626810
H  3.652381 -0.015923  7.253407
H  3.688263  1.722889  1.659972
H  5.475737 -0.009738  1.770117
H  5.494592  1.782076  0.000063
H  3.675584  0.012505  3.626800
H  3.688291  1.722883  5.593479
H  5.475740 -0.009749  5.483408
H  5.522720  1.697376  3.626806
H  3.645252  3.645286  0.000049
H  3.637582  5.531273  1.691233
H  5.531228  3.637596  1.691236
H  5.473334  5.473366  0.000067
H  3.637574  5.531264  5.562243
H  5.531224  3.637597  5.562246
H  5.538867  5.538919  3.626784
%ENDBLOCK POSITIONS_ABS

