#######################################################
#CASTEP cell file: ./cuvac-castep-traj/cuvac-castep-9.cell
#Created using the Atomic Simulation Environment (ASE)#
#######################################################

%BLOCK LATTICE_CART
 7.253359  0.000000  0.000000
 0.000000  7.253359  0.000000
 0.000000  0.000000  7.253359
%ENDBLOCK LATTICE_CART

%BLOCK POSITIONS_ABS
H -0.032040 -0.039877 -0.004029
H  7.174436  1.805220  1.672012
H  1.809348  7.172950  1.679583
H  1.807763  1.800714 -0.020884
H -0.123045 -0.130943  3.628378
H  7.175328  1.804851  5.563875
H  1.815098 -0.106255  5.567872
H  3.503503  3.506322  3.626688
H  7.218386  3.660253 -0.003546
H  7.238459  5.443625  1.768759
H  1.782431  3.716213  1.673854
H  1.802645  5.444973  0.004189
H  7.184074  3.753342  3.627402
H  7.235212  5.441619  5.484029
H  1.782746  3.724581  5.574839
H  1.795227  5.429718  3.626551
H  3.664092 -0.061443  7.265160
H  3.728977  1.776510  1.666190
H  5.449718 -0.042895  1.769405
H  5.455200  1.793662 -0.014369
H  3.753053 -0.107377  3.627388
H  3.723823  1.767680  5.577723
H  5.446774 -0.045586  5.483910
H  5.428968  1.781842  3.627839
H  3.649663  3.646000 -0.002902
H  3.638942  5.425062  1.769016
H  5.440108  3.637512  1.761306
H  5.444769  5.433420  0.000522
H  3.642079  5.427240  5.488906
H  5.438356  3.638214  5.487003
H  5.416490  5.400737  3.626646
%ENDBLOCK POSITIONS_ABS

