#######################################################
#CASTEP cell file: ./cuvac-castep-traj/cuvac-castep-6.cell
#Created using the Atomic Simulation Environment (ASE)#
#######################################################

%BLOCK LATTICE_CART
 7.253359  0.000000  0.000000
 0.000000  7.253359  0.000000
 0.000000  0.000000  7.253359
%ENDBLOCK LATTICE_CART

%BLOCK POSITIONS_ABS
H -0.021945 -0.021858  0.000121
H  7.195639  1.801517  1.703138
H  1.801459  7.195662  1.703076
H  1.793746  1.793814  0.000188
H -0.062870 -0.062789  3.626801
H  7.195631  1.801524  5.550516
H  1.801423 -0.057503  5.550483
H  2.731238  2.731234  3.626751
H  7.207448  3.658672  0.000097
H  7.227311  5.465226  1.768036
H  1.724394  3.715737  1.633071
H  1.781252  5.484781  0.000027
H  7.221200  3.722688  3.626844
H  7.227328  5.465256  5.485539
H  1.724358  3.715679  5.620431
H  1.718570  5.469389  3.626857
H  3.658629 -0.045718  7.253375
H  3.715618  1.724451  1.633118
H  5.465165 -0.025839  1.768036
H  5.484680  1.781339  0.000150
H  3.722670 -0.031815  3.626846
H  3.715700  1.724525  5.620405
H  5.465195 -0.025829  5.485539
H  5.469390  1.718735  3.626841
H  3.645907  3.645947  0.000075
H  3.638354  5.495885  1.703821
H  5.495721  3.638357  1.703909
H  5.461148  5.461256  0.000075
H  3.638315  5.495861  5.549627
H  5.495728  3.638350  5.549645
H  5.501044  5.501211  3.626817
%ENDBLOCK POSITIONS_ABS

