#######################################################
#CASTEP cell file: ./cuvac-castep-traj/cuvac-castep-4.cell
#Created using the Atomic Simulation Environment (ASE)#
#######################################################

%BLOCK LATTICE_CART
 7.253359  0.000000  0.000000
 0.000000  7.253359  0.000000
 0.000000  0.000000  7.253359
%ENDBLOCK LATTICE_CART

%BLOCK POSITIONS_ABS
Cu  0.007898  0.007953  0.000093
Cu  7.284749  1.825337  1.863760
Cu  1.825282  7.284794  1.863756
Cu  1.790607  1.790662  0.000092
Cu  0.018577  0.018629  3.626771
Cu  7.284742  1.825335  5.389787
Cu  1.825282  0.031442  5.389785
Cu  2.419815  2.419869  3.626767
Cu  7.208030  3.638906  0.000091
Cu  7.250781  5.452029  1.832732
Cu  1.799016  3.674869  1.689699
Cu  1.808220  5.503132  0.000087
Cu  7.307470  3.604740  3.626772
Cu  7.250782  5.452031  5.420811
Cu  1.799016  3.674862  5.563841
Cu  1.852123  5.372736  3.626772
Cu  3.638852 -0.045276  7.253447
Cu  3.674810  1.799067  1.689697
Cu  5.451978 -0.002523  1.832731
Cu  5.503079  1.808275  0.000092
Cu  3.604684  0.054166  3.626771
Cu  3.674811  1.799073  5.563842
Cu  5.451976 -0.002523  5.420812
Cu  5.372683  1.852175  3.626771
Cu  3.663238  3.663293  0.000092
Cu  3.628363  5.429602  1.851344
Cu  5.429545  3.628415  1.851344
Cu  5.441459  5.441512  0.000093
Cu  3.628362  5.429598  5.402198
Cu  5.429547  3.628417  5.402201
Cu  5.422459  5.422515  3.626771
%ENDBLOCK POSITIONS_ABS

