#######################################################
#CASTEP cell file: ./cuvac-castep-traj/cuvac-castep-8.cell
#Created using the Atomic Simulation Environment (ASE)#
#######################################################

%BLOCK LATTICE_CART
 7.253359  0.000000  0.000000
 0.000000  7.253359  0.000000
 0.000000  0.000000  7.253359
%ENDBLOCK LATTICE_CART

%BLOCK POSITIONS_ABS
H -0.053560 -0.039496  0.006544
H  7.109117  1.805946  1.708837
H  1.795691  7.113085  1.698726
H  1.778228  1.788255  0.024978
H -0.136386 -0.122158  3.624470
H  7.107793  1.805743  5.569215
H  1.788562 -0.109312  5.564328
H  3.412420  3.408471  3.627273
H  7.159137  3.655080  0.005839
H  7.173982  5.435975  1.771654
H  1.744387  3.730486  1.669988
H  1.775751  5.440876 -0.006697
H  7.107720  3.736223  3.626343
H  7.179135  5.438436  5.483612
H  1.743829  3.713992  5.591208
H  1.753694  5.413210  3.629476
H  3.647229 -0.060946  7.245168
H  3.708556  1.753172  1.682005
H  5.425251 -0.045239  1.770815
H  5.423667  1.789056  0.014664
H  3.734201 -0.092686  3.625855
H  3.716076  1.767810  5.585569
H  5.428237 -0.041959  5.483615
H  5.410673  1.776255  3.626817
H  3.634271  3.642199  0.004655
H  3.635859  5.433712  1.751877
H  5.407137  3.637842  1.763957
H  5.419853  5.438530 -0.001039
H  3.629473  5.431164  5.494836
H  5.410275  3.638202  5.497705
H  5.403287  5.429385  3.627208
%ENDBLOCK POSITIONS_ABS

