#######################################################
#CASTEP cell file: ./cuvac-castep-traj/cuvac-castep-4.cell
#Created using the Atomic Simulation Environment (ASE)#
#######################################################

%BLOCK LATTICE_CART
 7.253359  0.000000  0.000000
 0.000000  7.253359  0.000000
 0.000000  0.000000  7.253359
%ENDBLOCK LATTICE_CART

%BLOCK POSITIONS_ABS
H -0.010642 -0.010430  0.000130
H  7.225512  1.804263  1.721723
H  1.804064  7.225681  1.721665
H  1.797013  1.797198  0.000139
H -0.031389 -0.031089  3.626810
H  7.225505  1.804273  5.531964
H  1.804069 -0.027560  5.531913
H  2.373819  2.373867  3.626786
H  7.226555  3.656931  0.000143
H  7.238126  5.474313  1.768085
H  1.724446  3.705123  1.644381
H  1.781308  5.496225  0.000058
H  7.256684  3.694333  3.626848
H  7.238143  5.474316  5.485526
H  1.724415  3.704994  5.609236
H  1.700621  5.507533  3.626879
H  3.656781 -0.026487  7.253431
H  3.704923  1.724669  1.644381
H  5.474135 -0.014939  1.768099
H  5.496037  1.781505  0.000145
H  3.694145  0.003927  3.626846
H  3.704966  1.724822  5.609231
H  5.474125 -0.014906  5.485514
H  5.507397  1.701119  3.626842
H  3.647770  3.647987  0.000127
H  3.639090  5.521018  1.692751
H  5.520701  3.639180  1.692853
H  5.470737  5.470945  0.000088
H  3.639035  5.521012  5.560740
H  5.520702  3.639143  5.560784
H  5.528475  5.528850  3.626828
%ENDBLOCK POSITIONS_ABS

