#######################################################
#CASTEP cell file: ./cuvac-castep-traj/cuvac-castep-9.cell
#Created using the Atomic Simulation Environment (ASE)#
#######################################################

%BLOCK LATTICE_CART
 7.253359  0.000000  0.000000
 0.000000  7.253359  0.000000
 0.000000  0.000000  7.253359
%ENDBLOCK LATTICE_CART

%BLOCK POSITIONS_ABS
Cu -0.011965 -0.011900  0.000118
Cu  7.252937  1.800773  1.848078
Cu  1.800708  7.252977  1.848060
Cu  1.768934  1.769002  0.000148
Cu  0.006392  0.006455  3.626780
Cu  7.252907  1.800772  5.405551
Cu  1.800706 -0.000364  5.405539
Cu  3.181043  3.181105  3.626779
Cu  7.185828  3.621385  0.000117
Cu  7.231645  5.430795  1.831643
Cu  1.759229  3.619731  1.710846
Cu  1.792264  5.467740  0.000105
Cu  7.307558  3.580005  3.626780
Cu  7.231647  5.430796  5.421938
Cu  1.759231  3.619708  5.542749
Cu  1.817042  5.389717  3.626773
Cu  3.621319 -0.067464  7.253471
Cu  3.619644  1.759289  1.710853
Cu  5.430731 -0.021653  1.831651
Cu  5.467677  1.792330  0.000165
Cu  3.579935  0.054269  3.626780
Cu  3.619662  1.759303  5.542761
Cu  5.430730 -0.021638  5.421945
Cu  5.389653  1.817106  3.626770
Cu  3.635506  3.635573  0.000119
Cu  3.602307  5.397124  1.864121
Cu  5.397051  3.602377  1.864133
Cu  5.421750  5.421816  0.000103
Cu  3.602303  5.397118  5.389458
Cu  5.397055  3.602364  5.389466
Cu  5.408154  5.408224  3.626776
%ENDBLOCK POSITIONS_ABS

