#######################################################
#CASTEP cell file: ./cuvac-castep-traj/cuvac-castep-5.cell
#Created using the Atomic Simulation Environment (ASE)#
#######################################################

%BLOCK LATTICE_CART
 7.253359  0.000000  0.000000
 0.000000  7.253359  0.000000
 0.000000  0.000000  7.253359
%ENDBLOCK LATTICE_CART

%BLOCK POSITIONS_ABS
H -0.017767 -0.017183  0.000284
H  7.207777  1.802392  1.710889
H  1.801894  7.208099  1.710605
H  1.794533  1.795017  0.000605
H -0.050375 -0.049661  3.626776
H  7.207753  1.802413  5.543373
H  1.801793 -0.044527  5.543189
H  2.552803  2.552875  3.626832
H  7.214599  3.657794  0.000301
H  7.230979  5.469136  1.768217
H  1.722727  3.712203  1.636337
H  1.780500  5.490208 -0.000055
H  7.238380  3.709537  3.626848
H  7.231102  5.469181  5.485463
H  1.722664  3.711671  5.617544
H  1.707119  5.488202  3.626948
H  3.657423 -0.037730  7.253311
H  3.711530  1.723211  1.636465
H  5.468679 -0.021345  1.768243
H  5.489637  1.781058  0.000454
H  3.709184 -0.012996  3.626843
H  3.711698  1.723793  5.617477
H  5.468707 -0.021205  5.485452
H  5.488009  1.708422  3.626840
H  3.646326  3.646797  0.000261
H  3.638858  5.507952  1.697945
H  5.506991  3.639034  1.698354
H  5.465060  5.465693  0.000074
H  3.638662  5.507898  5.555402
H  5.507037  3.638937  5.555536
H  5.512590  5.513668  3.626855
%ENDBLOCK POSITIONS_ABS

