#######################################################
#CASTEP cell file: ./cuvac-castep-traj/cuvac-castep-8.cell
#Created using the Atomic Simulation Environment (ASE)#
#######################################################

%BLOCK LATTICE_CART
 7.253359  0.000000  0.000000
 0.000000  7.253359  0.000000
 0.000000  0.000000  7.253359
%ENDBLOCK LATTICE_CART

%BLOCK POSITIONS_ABS
Cu -0.001875 -0.001821  0.000090
Cu  7.263416  1.811275  1.851327
Cu  1.811220  7.263478  1.851332
Cu  1.776338  1.776393  0.000070
Cu  0.017141  0.017193  3.626773
Cu  7.263432  1.811273  5.402187
Cu  1.811219  0.010117  5.402197
Cu  3.020360  3.020412  3.626760
Cu  7.189928  3.631430  0.000086
Cu  7.241015  5.442227  1.832749
Cu  1.764822  3.640616  1.689713
Cu  1.800715  5.485000  0.000090
Cu  7.320270  3.587514  3.626776
Cu  7.241016  5.442229  5.420801
Cu  1.764826  3.640620  5.563813
Cu  1.834916  5.385531  3.626782
Cu  3.631376 -0.063376  7.253443
Cu  3.640570  1.764876  1.689705
Cu  5.442175 -0.012280  1.832743
Cu  5.484947  1.800770  0.000055
Cu  3.587457  0.066969  3.626776
Cu  3.640557  1.764879  5.563809
Cu  5.442175 -0.012296  5.420794
Cu  5.385478  1.834968  3.626785
Cu  3.649030  3.649085  0.000089
Cu  3.614346  5.408298  1.863788
Cu  5.408239  3.614392  1.863785
Cu  5.431729  5.431783  0.000103
Cu  3.614346  5.408296  5.389762
Cu  5.408241  3.614408  5.389756
Cu  5.421013  5.421071  3.626779
%ENDBLOCK POSITIONS_ABS

