#######################################################
#CASTEP cell file: ./cuvac-castep-traj/cuvac-castep-11.cell
#Created using the Atomic Simulation Environment (ASE)#
#######################################################

%BLOCK LATTICE_CART
 7.253359  0.000000  0.000000
 0.000000  7.253359  0.000000
 0.000000  0.000000  7.253359
%ENDBLOCK LATTICE_CART

%BLOCK POSITIONS_ABS
Cu -0.018201 -0.018150  0.000083
Cu  7.249590  1.791962  1.836828
Cu  1.791912  7.249619  1.836811
Cu  1.782398  1.782451  0.000125
Cu -0.003232 -0.003183  3.626735
Cu  7.249563  1.791964  5.416738
Cu  1.791913 -0.003726  5.416727
Cu  3.522873  3.522922  3.626728
Cu  7.217913  3.604784  0.000081
Cu  7.231581  5.418724  1.823781
Cu  1.782239  3.589566  1.801038
Cu  1.789563  5.429023  0.000072
Cu  7.268347  3.581064  3.626734
Cu  7.231584  5.418724  5.429736
Cu  1.782243  3.589552  5.452496
Cu  1.791380  5.412663  3.626728
Cu  3.604734 -0.035394  7.253437
Cu  3.589494  1.782289  1.801048
Cu  5.418673 -0.021734  1.823790
Cu  5.428975  1.789614  0.000144
Cu  3.581010  0.015044  3.626734
Cu  3.589520  1.782296  5.452510
Cu  5.418674 -0.021715  5.429745
Cu  5.412613  1.791430  3.626725
Cu  3.607912  3.607963  0.000083
Cu  3.595101  5.408564  1.836468
Cu  5.408511  3.595159  1.836477
Cu  5.414937  5.414989  0.000072
Cu  3.595101  5.408562  5.417046
Cu  5.408511  3.595145  5.417055
Cu  5.404261  5.404315  3.626731
%ENDBLOCK POSITIONS_ABS

