#######################################################
#CASTEP cell file: ./cuvac-castep-traj/cuvac-castep-7.cell
#Created using the Atomic Simulation Environment (ASE)#
#######################################################

%BLOCK LATTICE_CART
 7.253359  0.000000  0.000000
 0.000000  7.253359  0.000000
 0.000000  0.000000  7.253359
%ENDBLOCK LATTICE_CART

%BLOCK POSITIONS_ABS
H -0.026379 -0.029153 -0.000989
H  7.181475  1.800796  1.691064
H  1.803120  7.180023  1.692592
H  1.796032  1.793766 -0.002905
H -0.080511 -0.083683  3.627068
H  7.181406  1.800731  5.558542
H  1.803901 -0.077138  5.559254
H  3.035718  3.035285  3.626389
H  7.204501  3.659193 -0.001047
H  7.226453  5.457659  1.768013
H  1.737927  3.714447  1.641939
H  1.785967  5.470133  0.000724
H  7.198021  3.739000  3.626878
H  7.225662  5.457457  5.485033
H  1.737980  3.717263  5.609679
H  1.748402  5.441468  3.626412
H  3.660971 -0.053737  7.254014
H  3.718077  1.736107  1.640927
H  5.459801 -0.031951  1.767977
H  5.472928  1.783362 -0.001954
H  3.740185 -0.064553  3.627029
H  3.717355  1.733281  5.609970
H  5.459605 -0.032675  5.485033
H  5.442263  1.742614  3.626895
H  3.645997  3.643855 -0.000967
H  3.637068  5.472136  1.719225
H  5.476813  3.636194  1.717381
H  5.455620  5.452529  0.000109
H  3.638068  5.472470  5.534933
H  5.476430  3.636483  5.534346
H  5.481062  5.476117  3.626623
%ENDBLOCK POSITIONS_ABS

