#######################################################
#CASTEP cell file: ./cuvac-castep-traj/cuvac-castep-1.cell
#Created using the Atomic Simulation Environment (ASE)#
#######################################################

%BLOCK LATTICE_CART
 7.253359  0.000000  0.000000
 0.000000  7.253359  0.000000
 0.000000  0.000000  7.253359
%ENDBLOCK LATTICE_CART

%BLOCK POSITIONS_ABS
H -0.003807 -0.003814 -0.000020
H  7.244842  1.800637  1.806386
H  1.800645  7.244819  1.806404
H  1.802930  1.802923 -0.000021
H -0.016149 -0.016188  3.626650
H  7.244844  1.800635  5.446925
H  1.800643 -0.008546  5.446911
H  1.733966  1.733958  3.626666
H  7.251472  3.621337 -0.000019
H  7.251057  5.440602  1.810084
H  1.762510  3.615878  1.774418
H  1.806417  5.436239 -0.000013
H  7.248018  3.620341  3.626650
H  7.251057  5.440602  5.443229
H  1.762511  3.615874  5.478904
H  1.767898  5.484624  3.626644
H  3.621354 -0.001911  7.253348
H  3.615880  1.762493  1.774401
H  5.440619 -0.002336  1.810067
H  5.436261  1.806408 -0.000021
H  3.620323 -0.005382  3.626649
H  3.615874  1.762487  5.478921
H  5.440621 -0.002331  5.443245
H  5.484652  1.767866  3.626649
H  3.621660  3.621639 -0.000016
H  3.624617  5.483127  1.771381
H  5.483158  3.624623  1.771348
H  5.442828  5.442808 -0.000015
H  3.624622  5.483134  5.481948
H  5.483163  3.624617  5.481967
H  5.476569  5.476551  3.626650
%ENDBLOCK POSITIONS_ABS

