#######################################################
#CASTEP cell file: ./cuvac-castep-traj/cuvac-castep-7.cell
#Created using the Atomic Simulation Environment (ASE)#
#######################################################

%BLOCK LATTICE_CART
 7.253359  0.000000  0.000000
 0.000000  7.253359  0.000000
 0.000000  0.000000  7.253359
%ENDBLOCK LATTICE_CART

%BLOCK POSITIONS_ABS
Cu -0.001670 -0.001611  0.000103
Cu  7.266229  1.812292  1.854951
Cu  1.812232  7.266272  1.854939
Cu  1.776053  1.776114  0.000112
Cu  0.014541  0.014598  3.626780
Cu  7.266213  1.812292  5.398631
Cu  1.812234  0.012928  5.398624
Cu  2.862902  2.862961  3.626774
Cu  7.188256  3.632626  0.000102
Cu  7.240312  5.443099  1.833998
Cu  1.766857  3.651288  1.677528
Cu  1.799469  5.491775  0.000093
Cu  7.320586  3.586937  3.626779
Cu  7.240316  5.443099  5.419557
Cu  1.766860  3.651272  5.576030
Cu  1.840232  5.375636  3.626776
Cu  3.632567 -0.065042  7.253456
Cu  3.651216  1.766911  1.677531
Cu  5.443041 -0.012989  1.834002
Cu  5.491717  1.799528  0.000121
Cu  3.586875  0.067289  3.626779
Cu  3.651224  1.766926  5.576035
Cu  5.443040 -0.012979  5.419561
Cu  5.375578  1.840289  3.626775
Cu  3.652378  3.652437  0.000103
Cu  3.615606  5.411888  1.860977
Cu  5.411822  3.615667  1.860985
Cu  5.432196  5.432256  0.000096
Cu  3.615606  5.411886  5.392577
Cu  5.411830  3.615664  5.392583
Cu  5.417902  5.417964  3.626778
%ENDBLOCK POSITIONS_ABS

