#######################################################
#CASTEP cell file: ./cuvac-castep-traj/cuvac-castep-6.cell
#Created using the Atomic Simulation Environment (ASE)#
#######################################################

%BLOCK LATTICE_CART
 7.253359  0.000000  0.000000
 0.000000  7.253359  0.000000
 0.000000  0.000000  7.253359
%ENDBLOCK LATTICE_CART

%BLOCK POSITIONS_ABS
Cu  0.002867  0.002924  0.000099
Cu  7.273373  1.817884  1.858034
Cu  1.817826  7.273422  1.858029
Cu  1.781219  1.781278  0.000097
Cu  0.017843  0.017898  3.626777
Cu  7.273369  1.817884  5.395523
Cu  1.817827  0.020072  5.395523
Cu  2.723151  2.723210  3.626771
Cu  7.193968  3.636388  0.000097
Cu  7.245048  5.447981  1.834102
Cu  1.776301  3.663206  1.674130
Cu  1.803190  5.499201  0.000093
Cu  7.320536  3.592088  3.626778
Cu  7.245050  5.447983  5.419454
Cu  1.776304  3.663199  5.579418
Cu  1.847535  5.372364  3.626778
Cu  3.636331 -0.059332  7.253451
Cu  3.663143  1.776355  1.674130
Cu  5.447926 -0.008250  1.834102
Cu  5.499144  1.803248  0.000097
Cu  3.592028  0.067237  3.626778
Cu  3.663145  1.776366  5.579418
Cu  5.447925 -0.008252  5.419454
Cu  5.372308  1.847591  3.626779
Cu  3.658317  3.658375  0.000099
Cu  3.621767  5.419712  1.857842
Cu  5.419648  3.621822  1.857846
Cu  5.436780  5.436838  0.000099
Cu  3.621767  5.419708  5.395712
Cu  5.419653  3.621826  5.395713
Cu  5.421776  5.421836  3.626778
%ENDBLOCK POSITIONS_ABS

