#######################################################
#CASTEP cell file: ./cuvac-castep-traj/cuvac-castep-10.cell
#Created using the Atomic Simulation Environment (ASE)#
#######################################################

%BLOCK LATTICE_CART
 7.253359  0.000000  0.000000
 0.000000  7.253359  0.000000
 0.000000  0.000000  7.253359
%ENDBLOCK LATTICE_CART

%BLOCK POSITIONS_ABS
Cu -0.010318 -0.010268  0.000081
Cu  7.254566  1.801969  1.843210
Cu  1.801918  7.254617  1.843210
Cu  1.776368  1.776420  0.000044
Cu  0.009406  0.009454  3.626784
Cu  7.254576  1.801968  5.410282
Cu  1.801918  0.001264  5.410287
Cu  3.338813  3.338860  3.626777
Cu  7.197924  3.620496  0.000078
Cu  7.235230  5.430538  1.828615
Cu  1.769532  3.609994  1.741964
Cu  1.796680  5.457294  0.000076
Cu  7.299835  3.584546  3.626786
Cu  7.235232  5.430541  5.424900
Cu  1.769533  3.609994  5.511533
Cu  1.808706  5.405331  3.626790
Cu  3.620446 -0.055384  7.253434
Cu  3.609947  1.769579  1.741956
Cu  5.430490 -0.018071  1.828611
Cu  5.457247  1.796731  0.000036
Cu  3.584492  0.046531  3.626787
Cu  3.609941  1.769586  5.511531
Cu  5.430491 -0.018082  5.424897
Cu  5.405283  1.808754  3.626791
Cu  3.630831  3.630882  0.000080
Cu  3.602963  5.400245  1.861241
Cu  5.400189  3.603007  1.861240
Cu  5.422803  5.422854  0.000086
Cu  3.602964  5.400240  5.392272
Cu  5.400191  3.603020  5.392269
Cu  5.410249  5.410303  3.626786
%ENDBLOCK POSITIONS_ABS

