#######################################################
#CASTEP cell file: ./cuvac-castep-traj/cuvac-castep-3.cell
#Created using the Atomic Simulation Environment (ASE)#
#######################################################

%BLOCK LATTICE_CART
 7.253359  0.000000  0.000000
 0.000000  7.253359  0.000000
 0.000000  0.000000  7.253359
%ENDBLOCK LATTICE_CART

%BLOCK POSITIONS_ABS
Cu  0.017813  0.017877  0.000112
Cu  7.295909  1.837322  1.863999
Cu  1.837257  7.295966  1.863993
Cu  1.804133  1.804198  0.000113
Cu  0.031592  0.031656  3.626790
Cu  7.295906  1.837322  5.389586
Cu  1.837257  0.042617  5.389585
Cu  2.259646  2.259714  3.626786
Cu  7.225385  3.647283  0.000113
Cu  7.262205  5.461362  1.831613
Cu  1.819862  3.680531  1.710930
Cu  1.818337  5.506940  0.000107
Cu  7.303229  3.622564  3.626792
Cu  7.262209  5.461365  5.421968
Cu  1.819862  3.680523  5.542648
Cu  1.859480  5.385711  3.626792
Cu  3.647218 -0.027906  7.253464
Cu  3.680461  1.819922  1.710932
Cu  5.461299  0.008917  1.831615
Cu  5.506875  1.818401  0.000112
Cu  3.622499  0.049938  3.626792
Cu  3.680461  1.819932  5.542645
Cu  5.461300  0.008916  5.421966
Cu  5.385648  1.859543  3.626792
Cu  3.670485  3.670550  0.000113
Cu  3.638885  5.440116  1.847949
Cu  5.440041  3.638947  1.847959
Cu  5.451514  5.451580  0.000111
Cu  3.638885  5.440111  5.405630
Cu  5.440046  3.638952  5.405628
Cu  5.433290  5.433358  3.626792
%ENDBLOCK POSITIONS_ABS

