#######################################################
#CASTEP cell file: ./cuvac-castep-traj/cuvac-castep-10.cell
#Created using the Atomic Simulation Environment (ASE)#
#######################################################

%BLOCK LATTICE_CART
 7.253359  0.000000  0.000000
 0.000000  7.253359  0.000000
 0.000000  0.000000  7.253359
%ENDBLOCK LATTICE_CART

%BLOCK POSITIONS_ABS
H -0.023315 -0.043177 -0.009479
H  7.184914  1.811626  1.654855
H  1.821852  7.178389  1.670088
H  1.834378  1.817130 -0.035938
H -0.122620 -0.143337  3.630523
H  7.186222  1.811186  5.562504
H  1.836112 -0.118959  5.570448
H  3.734955  3.735437  3.628101
H  7.256495  3.668019 -0.007969
H  7.261710  5.442057  1.767532
H  1.830742  3.730718  1.686426
H  1.832878  5.441750  0.007966
H  7.191334  3.765200  3.627543
H  7.254939  5.438368  5.483460
H  1.831800  3.749022  5.556511
H  1.831768  5.444968  3.623550
H  3.679881 -0.047313  7.268041
H  3.759779  1.814063  1.667033
H  5.459189 -0.043251  1.769620
H  5.465877  1.812162 -0.023282
H  3.767825 -0.131040  3.628239
H  3.749772  1.800696  5.564322
H  5.452680 -0.046672  5.483494
H  5.453461  1.811781  3.627243
H  3.674756  3.663686 -0.006641
H  3.665454  5.434156  1.777895
H  5.462171  3.660063  1.773081
H  5.458124  5.431086  0.000547
H  3.672920  5.434971  5.480371
H  5.459739  3.658472  5.472296
H  5.445287  5.412083  3.626085
%ENDBLOCK POSITIONS_ABS

