#######################################################
#CASTEP cell file: ./cuvac-castep-traj/cuvac-castep-5.cell
#Created using the Atomic Simulation Environment (ASE)#
#######################################################

%BLOCK LATTICE_CART
 7.253359  0.000000  0.000000
 0.000000  7.253359  0.000000
 0.000000  0.000000  7.253359
%ENDBLOCK LATTICE_CART

%BLOCK POSITIONS_ABS
Cu  0.007551  0.007609  0.000101
Cu  7.281311  1.824194  1.861097
Cu  1.824135  7.281363  1.861092
Cu  1.787290  1.787350  0.000099
Cu  0.021793  0.021849  3.626779
Cu  7.281307  1.824193  5.392464
Cu  1.824135  0.028011  5.392464
Cu  2.576700  2.576762  3.626775
Cu  7.201400  3.640243  0.000100
Cu  7.250044  5.452856  1.834003
Cu  1.788521  3.672975  1.677476
Cu  1.807066  5.505027  0.000096
Cu  7.317306  3.599629  3.626781
Cu  7.250047  5.452858  5.419558
Cu  1.788521  3.672970  5.576081
Cu  1.852863  5.372362  3.626781
Cu  3.640185 -0.051897  7.253454
Cu  3.672911  1.788577  1.677476
Cu  5.452799 -0.003251  1.834003
Cu  5.504969  1.807125  0.000098
Cu  3.599568  0.064008  3.626781
Cu  3.672914  1.788585  5.576079
Cu  5.452799 -0.003253  5.419557
Cu  5.372305  1.852920  3.626781
Cu  3.663668  3.663727  0.000101
Cu  3.627472  5.426956  1.854860
Cu  5.426889  3.627528  1.854865
Cu  5.441414  5.441473  0.000102
Cu  3.627471  5.426951  5.398699
Cu  5.426893  3.627533  5.398698
Cu  5.425134  5.425197  3.626780
%ENDBLOCK POSITIONS_ABS

