#######################################################
#CASTEP cell file: ./cuvac-castep-traj/cuvac-castep-1.cell
#Created using the Atomic Simulation Environment (ASE)#
#######################################################

%BLOCK LATTICE_CART
 7.253359  0.000000  0.000000
 0.000000  7.253359  0.000000
 0.000000  0.000000  7.253359
%ENDBLOCK LATTICE_CART

%BLOCK POSITIONS_ABS
Cu  0.024944  0.024993  0.000087
Cu  7.284897  1.844816  1.836576
Cu  1.844766  7.284945  1.836572
Cu  1.831963  1.832014  0.000088
Cu  0.035841  0.035893  3.626766
Cu  7.284895  1.844816  5.416957
Cu  1.844766  0.031592  5.416958
Cu  1.918184  1.918236  3.626762
Cu  7.264297  3.650297  0.000089
Cu  7.274560  5.461731  1.823776
Cu  1.850346  3.657906  1.800908
Cu  1.835170  5.475357  0.000083
Cu  7.280600  3.648532  3.626766
Cu  7.274563  5.461733  5.429757
Cu  1.850342  3.657902  5.452624
Cu  1.858776  5.425038  3.626767
Cu  3.650245  0.010991  7.253441
Cu  3.657853  1.850393  1.800910
Cu  5.461681  0.021257  1.823778
Cu  5.475305  1.835221  0.000086
Cu  3.648484  0.027296  3.626767
Cu  3.657853  1.850399  5.452618
Cu  5.461681  0.021256  5.429754
Cu  5.424989  1.858825  3.626766
Cu  3.657468  3.657519  0.000087
Cu  3.648011  5.443792  1.836739
Cu  5.443732  3.648059  1.836749
Cu  5.458063  5.458116  0.000086
Cu  3.648009  5.443788  5.416792
Cu  5.443737  3.648061  5.416787
Cu  5.443174  5.443227  3.626768
%ENDBLOCK POSITIONS_ABS

