#######################################################
#CASTEP cell file: ./cuvac-castep-traj/cuvac-castep-2.cell
#Created using the Atomic Simulation Environment (ASE)#
#######################################################

%BLOCK LATTICE_CART
 7.253359  0.000000  0.000000
 0.000000  7.253359  0.000000
 0.000000  0.000000  7.253359
%ENDBLOCK LATTICE_CART

%BLOCK POSITIONS_ABS
Cu  0.016761  0.016812  0.000087
Cu  7.292764  1.836676  1.861374
Cu  1.836625  7.292804  1.861371
Cu  1.808613  1.808664  0.000085
Cu  0.029282  0.029327  3.626764
Cu  7.292757  1.836673  5.392158
Cu  1.836624  0.039452  5.392155
Cu  2.101503  2.101555  3.626755
Cu  7.235519  3.642977  0.000084
Cu  7.262434  5.457768  1.828678
Cu  1.829554  3.670087  1.741637
Cu  1.819056  5.495227  0.000080
Cu  7.287745  3.630863  3.626765
Cu  7.262434  5.457769  5.424851
Cu  1.829553  3.670078  5.511885
Cu  1.855137  5.392946  3.626764
Cu  3.642929 -0.017788  7.253439
Cu  3.670032  1.829601  1.741635
Cu  5.457721  0.009125  1.828676
Cu  5.495179  1.819107  0.000084
Cu  3.630808  0.034436  3.626764
Cu  3.670030  1.829607  5.511886
Cu  5.457719  0.009124  5.424853
Cu  5.392898  1.855185  3.626763
Cu  3.663299  3.663348  0.000084
Cu  3.637602  5.438376  1.843320
Cu  5.438324  3.637651  1.843319
Cu  5.449923  5.449972  0.000086
Cu  3.637600  5.438371  5.410205
Cu  5.438325  3.637652  5.410210
Cu  5.430143  5.430195  3.626764
%ENDBLOCK POSITIONS_ABS

