#######################################################
#CASTEP cell file: ./cuvac-castep-traj/cuvac-castep-11.cell
#Created using the Atomic Simulation Environment (ASE)#
#######################################################

%BLOCK LATTICE_CART
 7.253359  0.000000  0.000000
 0.000000  7.253359  0.000000
 0.000000  0.000000  7.253359
%ENDBLOCK LATTICE_CART

%BLOCK POSITIONS_ABS
H -0.020007 -0.042783 -0.011222
H  7.205017  1.812188  1.647507
H  1.822657  7.199109  1.667059
H  1.840008  1.819149 -0.052162
H -0.118062 -0.141848  3.631346
H  7.207576  1.811470  5.560626
H  1.840531 -0.116981  5.570974
H  3.737410  3.738784  3.628597
H  7.276645  3.669330 -0.009422
H  7.282100  5.444633  1.767426
H  1.836867  3.729306  1.687241
H  1.838097  5.444869  0.010324
H  7.212863  3.768822  3.627838
H  7.273755  5.439611  5.483563
H  1.838287  3.750521  5.553999
H  1.836320  5.447725  3.623497
H  3.682231 -0.045821  7.279980
H  3.764018  1.817257  1.663559
H  5.464317 -0.042421  1.770162
H  5.473356  1.813284 -0.035396
H  3.770484 -0.132003  3.628322
H  3.750434  1.801144  5.562450
H  5.455711 -0.046597  5.483657
H  5.456512  1.812658  3.627958
H  3.676770  3.664943 -0.007796
H  3.666581  5.435443  1.778441
H  5.468905  3.661357  1.771917
H  5.463241  5.431269  0.000806
H  3.675109  5.437049  5.482011
H  5.466187  3.660030  5.471918
H  5.452176  5.411639  3.626119
%ENDBLOCK POSITIONS_ABS

