#######################################################
#CASTEP cell file: cuvac-ase-traj/cuvac-ase-4.cell
#Created using the Atomic Simulation Environment (ASE)#
#######################################################

%BLOCK LATTICE_CART
 7.179647 -0.000000  0.000000
-0.000000  7.179647  0.000000
-0.000000 -0.000000  7.179647
%ENDBLOCK LATTICE_CART

%BLOCK POSITIONS_ABS
Cu  0.002108  0.002108  0.000000
Cu  0.010898  1.794912  1.805810
Cu  1.794912  0.010898  1.805810
Cu  1.794912  1.794912 -0.000000
Cu  0.010898  0.010898  3.589823
Cu  0.010898  1.794912  5.373837
Cu  1.794912  0.010898  5.373837
Cu  3.578925  3.578925  3.589823
Cu  0.002108  3.587715  0.000000
Cu  0.002108  5.384735  1.797020
Cu  1.794912  3.578925  1.805810
Cu  1.794912  5.384735  0.000000
Cu  0.010898  3.578925  3.589823
Cu  0.002108  5.384735  5.382627
Cu  1.794912  3.578925  5.373837
Cu  1.794912  5.384735  3.589823
Cu  3.587715  0.002108  0.000000
Cu  3.578925  1.794912  1.805810
Cu  5.384735  0.002108  1.797020
Cu  5.384735  1.794912 -0.000000
Cu  3.578925  0.010898  3.589823
Cu  3.578925  1.794912  5.373837
Cu  5.384735  0.002108  5.382627
Cu  5.384735  1.794912  3.589823
Cu  3.587715  3.587715  0.000000
Cu  3.587715  5.384735  1.797020
Cu  5.384735  3.587715  1.797020
Cu  5.384735  5.384735  0.000000
Cu  3.587715  5.384735  5.382627
Cu  5.384735  3.587715  5.382627
Cu  5.384735  5.384735  3.589823
%ENDBLOCK POSITIONS_ABS

