#######################################################
#CASTEP cell file: cuvac-ase-traj/cuvac-ase-3.cell
#Created using the Atomic Simulation Environment (ASE)#
#######################################################

%BLOCK LATTICE_CART
 7.220000  0.000000  0.000000
 0.000000  7.220000  0.000000
 0.000000  0.000000  7.220000
%ENDBLOCK LATTICE_CART

%BLOCK POSITIONS_ABS
Cu -0.013776 -0.013776  0.000000
Cu -0.000691  1.797360  1.832828
Cu  1.797360 -0.000691  1.832828
Cu  1.763647  1.763647  0.000000
Cu -0.003670 -0.003670  3.610000
Cu -0.000691  1.797360  5.387172
Cu  1.797360 -0.000691  5.387172
Cu  3.162082  3.162082  3.610000
Cu -0.070697  3.611112 -0.000000
Cu -0.018060  5.408742  1.817594
Cu  1.754620  3.617631  1.690505
Cu  1.787985  5.451392  0.000000
Cu  0.048687  3.579536  3.610000
Cu -0.018060  5.408742  5.402406
Cu  1.754620  3.617631  5.529495
Cu  1.807838  5.370925  3.610000
Cu  3.611112 -0.070697 -0.000000
Cu  3.617631  1.754620  1.690505
Cu  5.408742 -0.018060  1.817594
Cu  5.451392  1.787985 -0.000000
Cu  3.579536  0.048687  3.610000
Cu  3.617631  1.754620  5.529495
Cu  5.408742 -0.018060  5.402406
Cu  5.370925  1.807838  3.610000
Cu  3.627432  3.627432  0.000000
Cu  3.590652  5.375903  1.853314
Cu  5.375903  3.590652  1.853314
Cu  5.403737  5.403737  0.000000
Cu  3.590652  5.375903  5.366686
Cu  5.375903  3.590652  5.366686
Cu  5.389170  5.389170  3.610000
%ENDBLOCK POSITIONS_ABS

