#######################################################
#CASTEP cell file: cuvac-ase-traj/cuvac-ase-1.cell
#Created using the Atomic Simulation Environment (ASE)#
#######################################################

%BLOCK LATTICE_CART
 7.179647 -0.000000  0.000000
-0.000000  7.179647  0.000000
-0.000000 -0.000000  7.179647
%ENDBLOCK LATTICE_CART

%BLOCK POSITIONS_ABS
Cu  0.011196  0.011196 -0.000000
Cu  0.040011  1.814690  1.845002
Cu  1.814690  0.040011  1.845002
Cu  1.776982  1.776982  0.000000
Cu  0.026749  0.026749  3.589823
Cu  0.040011  1.814690  5.334645
Cu  1.814690  0.040011  5.334645
Cu  2.241056  2.241056  3.589823
Cu -0.037162  3.606632  0.000000
Cu  0.006359  5.402423  1.808205
Cu  1.788823  3.639362  1.680899
Cu  1.794026  5.455866  0.000000
Cu  0.043951  3.586588  3.589823
Cu  0.006359  5.402423  5.371442
Cu  1.788823  3.639362  5.498748
Cu  1.827741  5.332495  3.589823
Cu  3.606632 -0.037162  0.000000
Cu  3.639362  1.788823  1.680899
Cu  5.402423  0.006359  1.808205
Cu  5.455866  1.794026  0.000000
Cu  3.586588  0.043951  3.589823
Cu  3.639362  1.788823  5.498748
Cu  5.402423  0.006359  5.371442
Cu  5.332495  1.827741  3.589823
Cu  3.631518  3.631518  0.000000
Cu  3.597132  5.382496  1.825419
Cu  5.382496  3.597132  1.825419
Cu  5.398374  5.398374  0.000000
Cu  3.597132  5.382496  5.354228
Cu  5.382496  3.597132  5.354228
Cu  5.386177  5.386177  3.589823
%ENDBLOCK POSITIONS_ABS

