#######################################################
#CASTEP cell file: cuvac-ase-traj/cuvac-ase-2.cell
#Created using the Atomic Simulation Environment (ASE)#
#######################################################

%BLOCK LATTICE_CART
 7.179647 -0.000000  0.000000
-0.000000  7.179647  0.000000
-0.000000 -0.000000  7.179647
%ENDBLOCK LATTICE_CART

%BLOCK POSITIONS_ABS
Cu -0.003433 -0.003433  0.000000
Cu  0.021826  1.801365  1.839273
Cu  1.801365  0.021826  1.839273
Cu  1.756121  1.756121  0.000000
Cu  0.010110  0.010110  3.589823
Cu  0.021826  1.801365  5.340374
Cu  1.801365  0.021826  5.340374
Cu  2.692368  2.692368  3.589823
Cu -0.071228  3.602280  0.000000
Cu -0.007012  5.391747  1.811954
Cu  1.753248  3.631488  1.637160
Cu  1.782456  5.455963  0.000000
Cu  0.066686  3.562031  3.589823
Cu -0.007012  5.391747  5.367693
Cu  1.753248  3.631488  5.542487
Cu  1.822705  5.318049  3.589823
Cu  3.602280 -0.071228 -0.000000
Cu  3.631488  1.753248  1.637160
Cu  5.391747 -0.007012  1.811954
Cu  5.455963  1.782456  0.000000
Cu  3.562031  0.066686  3.589823
Cu  3.631488  1.753248  5.542487
Cu  5.391747 -0.007012  5.367693
Cu  5.318049  1.822705  3.589823
Cu  3.628614  3.628614  0.000000
Cu  3.583370  5.362910  1.839273
Cu  5.362910  3.583370  1.839273
Cu  5.388169  5.388169  0.000000
Cu  3.583370  5.362910  5.340374
Cu  5.362910  3.583370  5.340374
Cu  5.374625  5.374625  3.589823
%ENDBLOCK POSITIONS_ABS

