#######################################################
#CASTEP cell file: cuvac-ase-traj/cuvac-ase-2.cell
#Created using the Atomic Simulation Environment (ASE)#
#######################################################

%BLOCK LATTICE_CART
 7.220000  0.000000  0.000000
 0.000000  7.220000  0.000000
 0.000000  0.000000  7.220000
%ENDBLOCK LATTICE_CART

%BLOCK POSITIONS_ABS
Cu -0.003420 -0.003420  0.000000
Cu  0.019340  1.810944  1.846622
Cu  1.810944  0.019340  1.846622
Cu  1.766765  1.766765  0.000000
Cu  0.008302  0.008302  3.610000
Cu  0.019340  1.810944  5.373378
Cu  1.810944  0.019340  5.373378
Cu  2.707500  2.707500  3.610000
Cu -0.070625  3.622517  0.000000
Cu -0.007342  5.422342  1.821422
Cu  1.762285  3.652715  1.647445
Cu  1.792483  5.485625  0.000000
Cu  0.065255  3.583483  3.610000
Cu -0.007342  5.422342  5.398578
Cu  1.762285  3.652715  5.572555
Cu  1.831517  5.349745  3.610000
Cu  3.622517 -0.070625  0.000000
Cu  3.652715  1.762285  1.647445
Cu  5.422342 -0.007342  1.821422
Cu  5.485625  1.792483  0.000000
Cu  3.583483  0.065255  3.610000
Cu  3.652715  1.762285  5.572555
Cu  5.422342 -0.007342  5.398578
Cu  5.349745  1.831517  3.610000
Cu  3.648235  3.648235  0.000000
Cu  3.604056  5.395660  1.846622
Cu  5.395660  3.604056  1.846622
Cu  5.418420  5.418420  0.000000
Cu  3.604056  5.395660  5.373378
Cu  5.395660  3.604056  5.373378
Cu  5.406698  5.406698  3.610000
%ENDBLOCK POSITIONS_ABS

