#######################################################
#CASTEP cell file: cuvac-ase-traj/cuvac-ase-3.cell
#Created using the Atomic Simulation Environment (ASE)#
#######################################################

%BLOCK LATTICE_CART
 7.179647 -0.000000  0.000000
-0.000000  7.179647  0.000000
-0.000000 -0.000000  7.179647
%ENDBLOCK LATTICE_CART

%BLOCK POSITIONS_ABS
Cu -0.013639 -0.013639  0.000000
Cu  0.002239  1.787603  1.825419
Cu  1.787603  0.002239  1.825419
Cu  1.753217  1.753217  0.000000
Cu -0.001442 -0.001442  3.589823
Cu  0.002239  1.787603  5.354228
Cu  1.787603  0.002239  5.354228
Cu  3.143680  3.143680  3.589823
Cu -0.071131  3.590709  0.000000
Cu -0.017688  5.378376  1.808205
Cu  1.745373  3.595912  1.680899
Cu  1.778104  5.421897  0.000000
Cu  0.052240  3.556994  3.589823
Cu -0.017688  5.378376  5.371442
Cu  1.745373  3.595912  5.498748
Cu  1.798147  5.340784  3.589823
Cu  3.590709 -0.071131  0.000000
Cu  3.595912  1.745373  1.680899
Cu  5.378376 -0.017688  1.808205
Cu  5.421897  1.778104  0.000000
Cu  3.556994  0.052240  3.589823
Cu  3.595912  1.745373  5.498748
Cu  5.378376 -0.017688  5.371442
Cu  5.340784  1.798147  3.589823
Cu  3.607753  3.607753 -0.000000
Cu  3.570045  5.344724  1.845002
Cu  5.344724  3.570045  1.845002
Cu  5.373539  5.373539  0.000000
Cu  3.570045  5.344724  5.334645
Cu  5.344724  3.570045  5.334645
Cu  5.357987  5.357987  3.589823
%ENDBLOCK POSITIONS_ABS

