#######################################################
#CASTEP cell file: AlAuNebIm1.cell
#Created using the Atomic Simulation Environment (ASE)#
#######################################################

%BLOCK LATTICE_CART
 5.608413  0.000000  0.000000
 0.000000  5.608413  0.000000
 0.000000  0.000000 13.750000
%ENDBLOCK LATTICE_CART

%BLOCK POSITIONS_ABS
Al -0.001175  0.000645  3.962044
Al  2.805382  0.000645  3.962044
Al -0.001175  2.803561  3.962044
Al  2.805382  2.803561  3.962044
Al  1.402103  1.402103  6.045351
Al  4.206310  1.402103  6.041081
Al  1.402103  4.206310  6.003655
Al  4.206310  4.206310  6.043918
Al  0.020222 -0.038322  8.099780
Al  2.783984 -0.038322  8.099780
Al  0.020222  2.842528  8.099780
Al  2.783984  2.842528  8.099780
Au  2.804205  1.402103  9.661264
%ENDBLOCK POSITIONS_ABS

