#######################################################
#CASTEP cell file: AlAuNebIm2.cell
#Created using the Atomic Simulation Environment (ASE)#
#######################################################

%BLOCK LATTICE_CART
 5.608413  0.000000  0.000000
 0.000000  5.608413  0.000000
 0.000000  0.000000 13.750000
%ENDBLOCK LATTICE_CART

%BLOCK POSITIONS_ABS
Al -0.001194  0.002446  3.938496
Al  2.805401  0.002447  3.938496
Al -0.001194  2.801760  3.938496
Al  2.805401  2.801760  3.938496
Al  1.402103  1.402103  6.064125
Al  4.206310  1.402103  6.049232
Al  1.402103  4.206310  5.974381
Al  4.206310  4.206310  6.066438
Al  0.056493 -0.060595  8.127769
Al  2.747714 -0.060595  8.127769
Al  0.056493  2.864801  8.127769
Al  2.747713  2.864801  8.127769
Au  4.206307  1.402104  9.615888
%ENDBLOCK POSITIONS_ABS

