#######################################################
#CASTEP cell file: AlAuNebIm0.cell
#Created using the Atomic Simulation Environment (ASE)#
#######################################################

%BLOCK LATTICE_CART
 5.608413  0.000000  0.000000
 0.000000  5.608413  0.000000
 0.000000  0.000000 13.750000
%ENDBLOCK LATTICE_CART

%BLOCK POSITIONS_ABS
Al -0.001156 -0.001156  3.985591
Al  2.805362 -0.001156  3.985591
Al -0.001156  2.805362  3.985591
Al  2.805362  2.805362  3.985591
Al  1.402103  1.402103  6.026577
Al  4.206310  1.402103  6.032929
Al  1.402103  4.206310  6.032929
Al  4.206310  4.206310  6.021398
Al -0.016049 -0.016049  8.071791
Al  2.820255 -0.016049  8.071790
Al -0.016049  2.820255  8.071790
Al  2.820255  2.820255  8.071790
Au  1.402103  1.402103  9.706640
%ENDBLOCK POSITIONS_ABS

