#######################################################
#CASTEP cell file: neb_001.cell
#Created using the Atomic Simulation Environment (ASE)#
#######################################################

%BLOCK LATTICE_CART
 5.727565  0.000000  0.000000
 0.000000  5.727565  0.000000
 0.000000  0.000000 13.750000
%ENDBLOCK LATTICE_CART

%BLOCK POSITIONS_ABS
Al  0.000000  0.000000  4.000000
Al  2.863782  0.000000  4.000000
Al  0.000000  2.863782  4.000000
Al  2.863782  2.863782  4.000000
Al  1.431891  1.431891  6.025000
Al  4.295674  1.431891  6.025000
Al  1.431891  4.295674  6.025000
Al  4.295674  4.295674  6.025000
Al -0.008216 -0.011723  8.040553
Al  2.871998 -0.011723  8.040553
Al -0.008216  2.875506  8.040553
Al  2.871998  2.875506  8.040553
Au  2.147837  1.431891  9.776206
%ENDBLOCK POSITIONS_ABS

%BLOCK IONIC_CONSTRAINTS
     1  Al   1   1 0 0
     2  Al   1   0 1 0
     3  Al   1   0 0 1
     4  Al   2   1 0 0
     5  Al   2   0 1 0
     6  Al   2   0 0 1
     7  Al   3   1 0 0
     8  Al   3   0 1 0
     9  Al   3   0 0 1
    10  Al   4   1 0 0
    11  Al   4   0 1 0
    12  Al   4   0 0 1
    13  Al   5   1 0 0
    14  Al   5   0 1 0
    15  Al   5   0 0 1
    16  Al   6   1 0 0
    17  Al   6   0 1 0
    18  Al   6   0 0 1
    19  Al   7   1 0 0
    20  Al   7   0 1 0
    21  Al   7   0 0 1
    22  Al   8   1 0 0
    23  Al   8   0 1 0
    24  Al   8   0 0 1
%ENDBLOCK IONIC_CONSTRAINTS

