# CELL file written 15:32:40 (GMT+1.0) 2nd September 2021 from run initial

%BLOCK lattice_cart
   ANG
       7.30312408538746        0.00000000000000        0.00000000000000    
       0.00000000000000        7.30312408538746        0.00000000000000    
       0.00000000000000        0.00000000000000        7.30312408538746    
%ENDBLOCK lattice_cart

%BLOCK cell_constraints
      0   0   0
      0   0   0
%ENDBLOCK cell_constraints

%BLOCK positions_frac
   Cu             0.000001120642933      -0.000004676363082       0.000009019210339
   Cu             1.000005651613026       0.251087053141395       0.251108886877578
   Cu             0.251106038065119       0.999990742247661       0.251110798855339
   Cu             0.251103870363721       0.251096727426921       0.000006243386903
   Cu             0.000002521485468      -0.000004904979370       0.499992099597075
   Cu             1.000002008621947       0.251095434903657       0.748891649833643
   Cu             0.251103649572378      -0.000005117168655       0.748887091893890
   Cu             0.251207897870979       0.251194616694774       0.499993557900338
   Cu             1.000004448211683       0.500005913753664       0.000000734869008
   Cu             1.000006017239270       0.748912387969678       0.251109411714966
   Cu             0.251212889785153       0.500009122212999       0.251209741280532
   Cu             0.251106374898190       0.748904060056280       0.000010197643521
   Cu             1.000005251687057       0.500005984024963       0.499998305942116
   Cu             1.000002169422844       0.748903199189721       0.748891306359426
   Cu             0.251210477666313       0.500004974029481       0.748788904899473
   Cu             0.251210456806877       0.748806251348226       0.499989708998920
   Cu             0.499997873317089      -0.000006453434375       1.000012346770206
   Cu             0.499994133178634       0.251197750145887       0.251215893929513
   Cu             0.748894658670017      -0.000009048010870       0.251109236835111
   Cu             0.748895209076775       0.251093727006823       0.000002714566554
   Cu             0.499996268269533      -0.000006526867858       0.499989078728849
   Cu             0.499997673005059       0.251209323293550       0.748783876683704
   Cu             0.748897344425513      -0.000004887936419       0.748888860248721
   Cu             0.748791835820569       0.251191216715646       0.499996717729591
   Cu             0.499995447187100       0.500007716818826       0.000005933343688
   Cu             0.499994107168988       0.748802885498840       0.251217031527854
   Cu             0.748787322340174       0.500009139296643       0.251207255321225
   Cu             0.748892272610241       0.748907157453008       0.000006565789592
   Cu             0.499997640464011       0.748792097875746       0.748783527489343
   Cu             0.748789134996482       0.500005085978785       0.748790236219413
   Cu             0.748788235516859       0.748809047677454       0.499993065553571
%ENDBLOCK positions_frac

FIX_COM : true

%BLOCK species_gamma
   radsectesla
   Cu         71117890.00    
%ENDBLOCK species_gamma

%BLOCK species_pot
   Cu      3|2.2|2.0|1.0|10|12|13|40:41:32(qc=6)
%ENDBLOCK species_pot

SYMMETRY_TOL :     0.001000

%BLOCK symmetry_ops
# Symm. op. 1       E
          1.000000000000000       0.000000000000000       0.000000000000000
          0.000000000000000       1.000000000000000       0.000000000000000
          0.000000000000000       0.000000000000000       1.000000000000000
          0.000000000000000       0.000000000000000       0.000000000000000
%ENDBLOCK symmetry_ops

kpoint_mp_grid :    2   2   2

