#######################################################
#CASTEP cell file: /home/phony_stark/Desktop/RAL/eCSE/neb-perftests/copper-vacancy/cuvac-geomopt-initial/initial.cell
#Created using the Atomic Simulation Environment (ASE)#
#######################################################

%BLOCK LATTICE_CART
7.30312408538746	0.0	0.0
0.0	7.30312408538746	0.0
0.0	0.0	7.30312408538746
%ENDBLOCK LATTICE_CART

%BLOCK POSITIONS_FRAC
   Cu             1.000000190939912       0.000000023118165       0.000000001101766
   Cu             1.000000212832457       0.250005789943536       0.250005673999648
   Cu             0.250005714004115      -0.000000006084846       0.250005704479189
   Cu             0.250005738997853       0.250005709810921       0.000000024612033
   Cu             0.000000152595931      -0.000000008347455       0.500000013599525
   Cu             0.000000191105039       0.250005642551348       0.749994322240074
   Cu             0.250005811963834       0.000000051631798       0.749994304917792
   Cu             0.250005837367436       0.250005788120231       0.499999966547705
   Cu             1.000000179634341       0.499999957902906       0.000000147728300
   Cu             0.000000196760304       0.749994191763610       0.250005729674893
   Cu             0.250005727818901       0.499999989278316       0.250005769743351
   Cu             0.250005707336329       0.749994283565270       0.000000077642960
   Cu             0.000000194226362       0.500000028930071       0.499999867866968
   Cu             0.000000184997178       0.749994346224234       0.749994271338787
   Cu             0.250005801628436       0.499999970008658       0.749994251556443
   Cu             0.250005811467336       0.749994226058354       0.499999928134439
   Cu             0.499999810495881       0.000000035745002      -0.000000078811990
   Cu             0.499999786408974       0.250005862178518       0.250005754578756
   Cu             0.749994274369078      -0.000000011604932       0.250005707816848
   Cu             0.749994263658295       0.250005691893989       0.000000004938096
   Cu             0.499999840470666      -0.000000013365944       0.500000079397166
   Cu             0.499999809508925       0.250005681289304       0.749994236066383
   Cu             0.749994196866217       0.000000048853479       0.749994286844409
   Cu             0.749994183119493       0.250005770599945       0.499999991650149
   Cu             0.499999795150487       0.499999953643445       0.000000074534248
   Cu             0.499999819048141       0.749994157435764       0.250005806216651
   Cu             0.749994276762394       0.500000019746350       0.250005778227015
   Cu             0.749994283669899       0.749994315325701       0.000000023088594
   Cu             0.499999805466349       0.500000025128131       0.499999931885893
   Cu             0.499999825787470       0.749994300858154       0.749994186046925
   Cu             0.749994186948649       0.499999956987654       0.749994206807542
   Cu             0.749994188593314       0.749994220810323       0.499999955529445
%ENDBLOCK POSITIONS_FRAC

FIX_ALL_CELL: TRUE
KPOINT_MP_GRID: 2 2 2
