#######################################################
#CASTEP cell file: cuvac-neb-fast/CuVac.cell
#Created using the Atomic Simulation Environment (ASE)#
#######################################################

%BLOCK LATTICE_CART
 7.303124  0.000000  0.000000
 0.000000  7.303124  0.000000
 0.000000  0.000000  7.303124
%ENDBLOCK LATTICE_CART

%BLOCK POSITIONS_ABS
Cu  0.000008 -0.000034  0.000066
Cu  7.303165  1.833720  1.833879
Cu  1.833859  7.303056  1.833893
Cu  1.833843  1.833791  0.000046
Cu  0.000018 -0.000036  3.651504
Cu  7.303139  1.833781  5.469249
Cu  1.833841 -0.000037  5.469215
Cu  1.834602  1.834505  3.651515
Cu  7.303157  3.651605  0.000005
Cu  7.303168  5.469400  1.833883
Cu  1.834639  3.651629  1.834616
Cu  1.833861  5.469339  0.000074
Cu  7.303162  3.651606  3.651550
Cu  7.303140  5.469333  5.469246
Cu  1.834621  3.651598  5.468498
Cu  1.834621  5.468625  3.651487
Cu  3.651547 -0.000047  7.303214
Cu  3.651519  1.834528  1.834661
Cu  5.469271 -0.000066  1.833882
Cu  5.469275  1.833769  0.000020
Cu  3.651535 -0.000048  3.651482
Cu  3.651545  1.834613  5.468462
Cu  5.469290 -0.000036  5.469228
Cu  5.468520  1.834481  3.651538
Cu  3.651529  3.651618  0.000043
Cu  3.651519  5.468600  1.834669
Cu  5.468487  3.651629  1.834598
Cu  5.469253  5.469362  0.000048
Cu  3.651545  5.468522  5.468459
Cu  5.468500  3.651599  5.468508
Cu  5.468493  5.468645  3.651511
%ENDBLOCK POSITIONS_ABS

FIX_COM: FALSE
KPOINT_MP_GRID: 2 2 2
%BLOCK POSITIONS_ABS_PRODUCT
ang
    Cu 0.007 0.007 0.000
    Cu 0.009 1.826 1.835
    Cu 1.826 0.009 1.835
    Cu 1.826 1.826 7.303
    Cu 0.009 0.009 3.652
    Cu 0.009 1.826 5.468
    Cu 1.826 0.009 5.468
    Cu 3.643 3.643 3.652
    Cu 0.007 3.644 -0.000
    Cu 0.007 5.477 1.833
    Cu 1.826 3.643 1.835
    Cu 1.826 5.477 -0.000
    Cu 0.009 3.643 3.652
    Cu 0.007 5.477 5.470
    Cu 1.826 3.643 5.468
    Cu 1.826 5.477 3.652
    Cu 3.644 0.007 -0.000
    Cu 3.643 1.826 1.835
    Cu 5.477 0.007 1.833
    Cu 5.477 1.826 7.303
    Cu 3.643 0.009 3.652
    Cu 3.643 1.826 5.468
    Cu 5.477 0.007 5.470
    Cu 5.477 1.826 3.652
    Cu 3.644 3.644 -0.000
    Cu 3.644 5.477 1.834
    Cu 5.477 3.644 1.833
    Cu 5.477 5.477 -0.000
    Cu 3.644 5.477 5.470
    Cu 5.477 3.644 5.470
    Cu 5.477 5.477 3.652
%ENDBLOCK POSITIONS_ABS_PRODUCT

%BLOCK POSITIONS_ABS_INTERMEDIATE
ang
    Cu 0.004 0.004 0.000
    Cu 7.308 1.830 1.834
    Cu 1.830 7.308 1.834
    Cu 1.830 1.830 -0.000
    Cu 0.004 0.004 3.652
    Cu 7.307 1.830 5.469
    Cu 1.830 0.004 5.469
    Cu 2.739 2.739 3.652
    Cu 7.307 3.648 -0.000
    Cu 7.307 5.473 1.834
    Cu 1.830 3.647 1.835
    Cu 1.830 5.473 0.000
    Cu 7.308 3.647 3.652
    Cu 7.307 5.473 5.470
    Cu 1.830 3.647 5.468
    Cu 1.830 5.473 3.652
    Cu 3.648 0.004 7.303
    Cu 3.647 1.830 1.835
    Cu 5.473 0.004 1.834
    Cu 5.473 1.830 -0.000
    Cu 3.647 0.004 3.652
    Cu 3.647 1.830 5.468
    Cu 5.473 0.004 5.469
    Cu 5.473 1.830 3.652
    Cu 3.648 3.648 -0.000
    Cu 3.648 5.473 1.834
    Cu 5.473 3.648 1.834
    Cu 5.473 5.473 -0.000
    Cu 3.648 5.473 5.469
    Cu 5.473 3.648 5.469
    Cu 5.473 5.473 3.652
%ENDBLOCK POSITIONS_ABS_INTERMEDIATE

