# CELL file written 15:54:38 (GMT+1.0) 2nd September 2021 from run final

%BLOCK lattice_cart
   ANG
       7.30312408538746        0.00000000000000        0.00000000000000    
       0.00000000000000        7.30312408538746        0.00000000000000    
       0.00000000000000        0.00000000000000        7.30312408538746    
%ENDBLOCK lattice_cart

%BLOCK cell_constraints
      0   0   0
      0   0   0
%ENDBLOCK cell_constraints

%BLOCK positions_frac
   Cu             0.000999730457363       0.001000897400765       0.000009338368960
   Cu             0.001216568648220       0.250038838766456       0.251223836031304
   Cu             0.250031859686633       0.001208089623971       0.251232309336215
   Cu             0.250022601339564       0.250040285370305       0.999992017413706
   Cu             0.001206135300052       0.001199354738069       0.499993153887295
   Cu             0.001178079136316       0.250049693289671       0.748788694569188
   Cu             0.250043272011634       0.001185485744004       0.748770241674887
   Cu             0.498820537775826       0.498843676984066       0.500016339916252
   Cu             0.000995439128604       0.498995931689777      -0.000003330477376
   Cu             0.001015514382316       0.749946270246170       0.251037113312416
   Cu             0.250015988929031       0.498814345567879       0.251247267119950
   Cu             0.250021230651701       0.749954043593045      -0.000008461821192
   Cu             0.001212353178059       0.498821715413941       0.500005055301814
   Cu             0.001001916320312       0.749932829006290       0.748964174863757
   Cu             0.250026247203407       0.498842819813916       0.748760917316491
   Cu             0.250042969422201       0.749999541975723       0.499999433573108
   Cu             0.498989975012518       0.000998807309943      -0.000002303866741
   Cu             0.498822487611010       0.250021953431521       0.251222535295970
   Cu             0.749957701402250       0.001005913954707       0.251036623084360
   Cu             0.749962836200362       0.250041679346141       0.999985614524824
   Cu             0.498820887046204       0.001184619643605       0.500004499291480
   Cu             0.498850788854520       0.250032847614945       0.748779327516561
   Cu             0.749946991778976       0.000994518356752       0.748961259729832
   Cu             0.749981671237545       0.250049229683899       0.500003491352373
   Cu             0.498993451426197       0.498996886462234      -0.000015782897174
   Cu             0.498980959685707       0.749962283448546       0.251058309525433
   Cu             0.749975392128029       0.498988460186395       0.251042207225525
   Cu             0.749970108745743       0.749954364431544      -0.000020505722938
   Cu             0.498995062875952       0.749948819484428       0.748943620530739
   Cu             0.749964256081372       0.499000731718522       0.748956132920031
   Cu             0.749936986342375       0.749945065702770       0.500016871102950
%ENDBLOCK positions_frac

FIX_COM : true

%BLOCK species_gamma
   radsectesla
   Cu         71117890.00    
%ENDBLOCK species_gamma

%BLOCK species_pot
   Cu      3|2.2|2.0|1.0|10|12|13|40:41:32(qc=6)
%ENDBLOCK species_pot

SYMMETRY_TOL :     0.001000

%BLOCK symmetry_ops
# Symm. op. 1       E
          1.000000000000000       0.000000000000000       0.000000000000000
          0.000000000000000       1.000000000000000       0.000000000000000
          0.000000000000000       0.000000000000000       1.000000000000000
          0.000000000000000       0.000000000000000       0.000000000000000
%ENDBLOCK symmetry_ops

kpoint_mp_grid :    2   2   2

