#######################################################
#CASTEP cell file: CuBulk.cell
#Created using the Atomic Simulation Environment (ASE)#
#######################################################

%BLOCK LATTICE_CART
 7.220000  0.000000  0.000000
 0.000000  7.220000  0.000000
 0.000000  0.000000  7.220000
%ENDBLOCK LATTICE_CART

%BLOCK POSITIONS_ABS
Cu  0.000000  0.000000  0.000000
Cu  0.000000  1.805000  1.805000
Cu  1.805000  0.000000  1.805000
Cu  1.805000  1.805000  0.000000
Cu  0.000000  0.000000  3.610000
Cu  0.000000  1.805000  5.415000
Cu  1.805000  0.000000  5.415000
Cu  1.805000  1.805000  3.610000
Cu  0.000000  3.610000  0.000000
Cu  0.000000  5.415000  1.805000
Cu  1.805000  3.610000  1.805000
Cu  1.805000  5.415000  0.000000
Cu  0.000000  3.610000  3.610000
Cu  0.000000  5.415000  5.415000
Cu  1.805000  3.610000  5.415000
Cu  1.805000  5.415000  3.610000
Cu  3.610000  0.000000  0.000000
Cu  3.610000  1.805000  1.805000
Cu  5.415000  0.000000  1.805000
Cu  5.415000  1.805000  0.000000
Cu  3.610000  0.000000  3.610000
Cu  3.610000  1.805000  5.415000
Cu  5.415000  0.000000  5.415000
Cu  5.415000  1.805000  3.610000
Cu  3.610000  3.610000  0.000000
Cu  3.610000  5.415000  1.805000
Cu  5.415000  3.610000  1.805000
Cu  5.415000  5.415000  0.000000
Cu  3.610000  3.610000  3.610000
Cu  3.610000  5.415000  5.415000
Cu  5.415000  3.610000  5.415000
Cu  5.415000  5.415000  3.610000
%ENDBLOCK POSITIONS_ABS

SYMMETRY_GENERATE
