# CELL file written 17:55:09 (GMT+1.0) 12th August 2021 from run AlAu

%BLOCK lattice_cart
   ANG
       5.60841300000000        0.00000000000000        0.00000000000000    
       0.00000000000000        5.60841300000000        0.00000000000000    
       0.00000000000000        0.00000000000000        13.7500000000000    
%ENDBLOCK lattice_cart

%BLOCK cell_constraints
      0   0   0
      0   0   0
%ENDBLOCK cell_constraints

%BLOCK positions_frac
   Al            -0.000212966205226       0.000436211593674       0.286436090409534
   Al             0.500213000606074       0.000436219759606       0.286436086417253
   Al            -0.000212968737019       0.499563696447792       0.286436089774187
   Al             0.500212997810136       0.499563694665584       0.286436090572476
   Al             0.249999999067930       0.249999934628110       0.441027268571351
   Al             0.750000037364785       0.249999933202390       0.439944154583326
   Al             0.249999999057996       0.749999985281957       0.434500444068480
   Al             0.750000040948226       0.749999983378991       0.441195498194487
   Al             0.010072888158588       0.989195704236273       0.591110497122030
   Al             0.489927118805453       0.989195647363800       0.591110483538243
   Al             0.010072917307454       0.510804236364222       0.591110486206237
   Al             0.489927092427224       0.510804291392633       0.591110471075188
   Au             0.749999531357150       0.250000060501961       0.699337321285391
%ENDBLOCK positions_frac

FIX_COM : true

%BLOCK species_pot
   Al      3|2.2|2.2|1.4|4|5|5|30:31:32U2U2
   Au      3|2.4|9|10|11|50U:60:51:52:43(qc=6)
%ENDBLOCK species_pot

SYMMETRY_TOL :     0.001000

%BLOCK symmetry_ops
# Symm. op. 1       E
          1.000000000000000       0.000000000000000       0.000000000000000
          0.000000000000000       1.000000000000000       0.000000000000000
          0.000000000000000       0.000000000000000       1.000000000000000
          0.000000000000000       0.000000000000000       0.000000000000000
%ENDBLOCK symmetry_ops

kpoint_mp_grid :    7   7   3

