#######################################################
#CASTEP cell file: alau-geomopt-final/AlAu.cell
#Created using the Atomic Simulation Environment (ASE)#
#######################################################

%BLOCK LATTICE_CART
 5.608413  0.000000 -0.000000
 0.000000  5.608413 -0.000000
 0.000000  0.000000 13.750000
%ENDBLOCK LATTICE_CART

%BLOCK POSITIONS_ABS
Al  0.000000  0.000000  4.000000
Al  2.804206  0.000000  4.000000
Al  0.000000  2.804206  4.000000
Al  2.804206  2.804206  4.000000
Al  1.402103  1.402103  6.025000
Al  4.206310  1.402103  6.025000
Al  1.402103  4.206310  6.025000
Al  4.206310  4.206310  6.025000
Al  0.000403  5.595077  8.038538
Al  2.803803  5.595077  8.038538
Al  0.000403  2.817542  8.038538
Al  2.803803  2.817542  8.038538
Au  4.206310  1.402103  9.780974
%ENDBLOCK POSITIONS_ABS

kpoint_mp_grid: 7 7 3
fix_com: True
fix_all_cell: True