#######################################################
#CASTEP cell file: /home/phony_stark/Desktop/RAL/eCSE/neb-perftests/copper-vacancy-morse/cuvac-neb-morse/CuVacMorse.cell
#Created using the Atomic Simulation Environment (ASE)#
#######################################################

%BLOCK LATTICE_CART
10.818734  0.000000  0.000000
 0.000000 10.818734  0.000000
 0.000000  0.000000 10.818734
%ENDBLOCK LATTICE_CART

%BLOCK POSITIONS_ABS
Cu -0.005665 -0.000000 -0.000000
Cu -0.006548  1.796574  1.796574
Cu  1.796834 -0.000000  1.794862
Cu  1.796834  1.794862 -0.000000
Cu -0.008260 -0.000000  3.599956
Cu -0.008634  1.794488  5.409367
Cu  1.786964 -0.000000  5.409367
Cu  1.793266  1.789756  3.596388
Cu -0.008260 -0.000000  7.218778
Cu -0.006548  1.796574  9.022159
Cu  1.796834 -0.000000  9.023872
Cu  1.793266  1.789756  7.222346
Cu -0.008260  3.599956 -0.000000
Cu -0.008634  5.409367  1.794488
Cu  1.793266  3.596388  1.789756
Cu  1.786964  5.409367 -0.000000
Cu -0.013367  3.596388  3.596388
Cu -0.039794  5.409367  5.409367
Cu  1.791153  3.594275  5.409367
Cu  1.791153  5.409367  3.594275
Cu -0.013367  3.596388  7.222346
Cu -0.008634  5.409367  9.024245
Cu  1.793266  3.596388  9.028978
Cu  1.791153  5.409367  7.224458
Cu -0.008260  7.218778 -0.000000
Cu -0.006548  9.022159  1.796574
Cu  1.793266  7.222346  1.789756
Cu  1.796834  9.023872 -0.000000
Cu -0.013367  7.222346  3.596388
Cu -0.008634  9.024245  5.409367
Cu  1.791153  7.224458  5.409367
Cu  1.793266  9.028978  3.596388
Cu -0.013367  7.222346  7.222346
Cu -0.006548  9.022159  9.022159
Cu  1.793266  7.222346  9.028978
Cu  1.793266  9.028978  7.222346
Cu  3.606245 -0.000000 -0.000000
Cu  3.606245  1.794488  1.794488
Cu  5.415655 -0.000000  1.794862
Cu  5.415655  1.794862 -0.000000
Cu  3.606245 -0.000000  3.590086
Cu  3.606245  1.763328  5.409367
Cu  5.425525 -0.000000  5.409367
Cu  5.419224  1.789756  3.596388
Cu  3.606245 -0.000000  7.228648
Cu  3.606245  1.794488  9.024245
Cu  5.415655 -0.000000  9.023872
Cu  5.419224  1.789756  7.222346
Cu  3.606245  3.590086 -0.000000
Cu  3.606245  5.409367  1.763328
Cu  5.419224  3.596388  1.789756
Cu  5.425525  5.409367 -0.000000
Cu  3.606245  3.594275  3.594275
Cu  5.421336  3.594275  5.409367
Cu  5.421336  5.409367  3.594275
Cu  3.606245  3.594275  7.224458
Cu  3.606245  5.409367  9.055406
Cu  5.419224  3.596388  9.028978
Cu  5.421336  5.409367  7.224458
Cu  3.606245  7.228648 -0.000000
Cu  3.606245  9.024245  1.794488
Cu  5.419224  7.222346  1.789756
Cu  5.415655  9.023872 -0.000000
Cu  3.606245  7.224458  3.594275
Cu  3.606245  9.055406  5.409367
Cu  5.421336  7.224458  5.409367
Cu  5.419224  9.028978  3.596388
Cu  3.606245  7.224458  7.224458
Cu  3.606245  9.024245  9.024245
Cu  5.419224  7.222346  9.028978
Cu  5.419224  9.028978  7.222346
Cu  7.218154 -0.000000 -0.000000
Cu  7.219037  1.796574  1.796574
Cu  9.015611 -0.000000  1.797457
Cu  9.015611  1.797457 -0.000000
Cu  7.220749 -0.000000  3.599956
Cu  7.221123  1.794488  5.409367
Cu  9.015611 -0.000000  5.409367
Cu  9.015611  1.794862  3.599956
Cu  7.220749 -0.000000  7.218778
Cu  7.219037  1.796574  9.022159
Cu  9.015611 -0.000000  9.021276
Cu  9.015611  1.794862  7.218778
Cu  7.220749  3.599956 -0.000000
Cu  7.221123  5.409367  1.794488
Cu  9.015611  3.599956  1.794862
Cu  9.015611  5.409367 -0.000000
Cu  7.225856  3.596388  3.596388
Cu  7.252284  5.409367  5.409367
Cu  9.015611  3.590086  5.409367
Cu  9.015611  5.409367  3.590086
Cu  7.225856  3.596388  7.222346
Cu  7.221123  5.409367  9.024245
Cu  9.015611  3.599956  9.023872
Cu  9.015611  5.409367  7.228648
Cu  7.220749  7.218778 -0.000000
Cu  7.219037  9.022159  1.796574
Cu  9.015611  7.218778  1.794862
Cu  9.015611  9.021276 -0.000000
Cu  7.225856  7.222346  3.596388
Cu  7.221123  9.024245  5.409367
Cu  9.015611  7.228648  5.409367
Cu  9.015611  9.023872  3.599956
Cu  7.225856  7.222346  7.222346
Cu  7.219037  9.022159  9.022159
Cu  9.015611  7.218778  9.023872
Cu  9.015611  9.023872  7.218778
%ENDBLOCK POSITIONS_ABS

FIX_COM: FALSE
%BLOCK POSITIONS_ABS_PRODUCT
ang
    Cu -0.007 -0.007 -0.007
    Cu -0.013 1.793 1.793
    Cu 1.793 -0.013 1.793
    Cu 1.793 1.793 -0.013
    Cu -0.009 -0.009 3.606
    Cu -0.013 1.793 5.419
    Cu 1.793 -0.013 5.419
    Cu 1.791 1.791 3.606
    Cu -0.007 -0.007 7.219
    Cu -0.008 1.797 9.016
    Cu 1.797 -0.008 9.016
    Cu 1.793 1.793 7.226
    Cu -0.009 3.606 -0.009
    Cu -0.013 5.419 1.793
    Cu 1.791 3.606 1.791
    Cu 1.793 5.419 -0.013
    Cu -0.040 3.606 3.606
    Cu -0.013 5.419 5.419
    Cu 1.791 3.606 5.421
    Cu 1.791 5.421 3.606
    Cu -0.009 3.606 7.221
    Cu -0.008 5.416 9.016
    Cu 1.787 3.606 9.016
    Cu 1.793 5.419 7.226
    Cu -0.007 7.219 -0.007
    Cu -0.008 9.016 1.797
    Cu 1.793 7.226 1.793
    Cu 1.797 9.016 -0.008
    Cu -0.009 7.221 3.606
    Cu -0.008 9.016 5.416
    Cu 1.793 7.226 5.419
    Cu 1.787 9.016 3.606
    Cu -0.007 7.219 7.219
    Cu -0.006 9.016 9.016
    Cu 1.797 7.221 9.016
    Cu 1.797 9.016 7.221
    Cu 3.606 -0.009 -0.009
    Cu 3.606 1.791 1.791
    Cu 5.419 -0.013 1.793
    Cu 5.419 1.793 -0.013
    Cu 3.606 -0.040 3.606
    Cu 3.606 1.791 5.421
    Cu 5.419 -0.013 5.419
    Cu 5.421 1.791 3.606
    Cu 3.606 -0.009 7.221
    Cu 3.606 1.787 9.016
    Cu 5.416 -0.008 9.016
    Cu 5.419 1.793 7.226
    Cu 3.606 3.606 -0.040
    Cu 3.606 5.421 1.791
    Cu 5.421 3.606 1.791
    Cu 5.419 5.419 -0.013
    Cu 3.606 5.421 5.421
    Cu 5.421 3.606 5.421
    Cu 5.421 5.421 3.606
    Cu 3.606 3.606 7.252
    Cu 3.606 5.426 9.016
    Cu 5.426 3.606 9.016
    Cu 5.419 5.419 7.226
    Cu 3.606 7.221 -0.009
    Cu 3.606 9.016 1.787
    Cu 5.419 7.226 1.793
    Cu 5.416 9.016 -0.008
    Cu 3.606 7.252 3.606
    Cu 3.606 9.016 5.426
    Cu 5.419 7.226 5.419
    Cu 5.426 9.016 3.606
    Cu 3.606 7.221 7.221
    Cu 3.606 9.016 9.016
    Cu 5.416 7.221 9.016
    Cu 5.416 9.016 7.221
    Cu 7.219 -0.007 -0.007
    Cu 7.226 1.793 1.793
    Cu 9.016 -0.008 1.797
    Cu 9.016 1.797 -0.008
    Cu 7.221 -0.009 3.606
    Cu 7.226 1.793 5.419
    Cu 9.016 -0.008 5.416
    Cu 9.016 1.787 3.606
    Cu 7.219 -0.007 7.219
    Cu 7.221 1.797 9.016
    Cu 9.016 -0.006 9.016
    Cu 9.016 1.797 7.221
    Cu 7.221 3.606 -0.009
    Cu 7.226 5.419 1.793
    Cu 9.016 3.606 1.787
    Cu 9.016 5.416 -0.008
    Cu 7.252 3.606 3.606
    Cu 7.226 5.419 5.419
    Cu 9.016 3.606 5.426
    Cu 9.016 5.426 3.606
    Cu 7.221 3.606 7.221
    Cu 7.221 5.416 9.016
    Cu 9.016 3.606 9.016
    Cu 9.016 5.416 7.221
    Cu 7.219 7.219 -0.007
    Cu 7.221 9.016 1.797
    Cu 9.016 7.221 1.797
    Cu 9.016 9.016 -0.006
    Cu 7.221 7.221 3.606
    Cu 7.221 9.016 5.416
    Cu 9.016 7.221 5.416
    Cu 9.016 9.016 3.606
    Cu 7.219 7.219 7.219
    Cu 7.218 9.016 9.016
    Cu 9.016 7.218 9.016
    Cu 9.016 9.016 7.218
%ENDBLOCK POSITIONS_ABS_PRODUCT

%BLOCK POSITIONS_ABS_INTERMEDIATE
ang
    Cu -0.006 -0.003 -0.003
    Cu -0.010 1.795 1.795
    Cu 1.795 -0.007 1.794
    Cu 1.795 1.794 -0.007
    Cu -0.008 -0.004 3.603
    Cu -0.011 1.794 5.414
    Cu 1.790 -0.007 5.414
    Cu 1.792 1.790 3.601
    Cu -0.007 -0.003 7.219
    Cu -0.007 1.797 9.019
    Cu 1.797 -0.004 9.020
    Cu 1.793 1.792 7.224
    Cu -0.008 3.603 -0.004
    Cu -0.011 5.414 1.794
    Cu 1.792 3.601 1.790
    Cu 1.790 5.414 -0.007
    Cu -0.027 3.601 3.601
    Cu -0.027 5.414 5.414
    Cu 1.791 3.600 5.415
    Cu 1.791 5.415 3.600
    Cu -0.011 3.601 7.222
    Cu -0.008 5.413 9.020
    Cu 1.790 3.601 9.022
    Cu 1.792 5.414 7.225
    Cu -0.007 7.219 -0.003
    Cu -0.007 9.019 1.797
    Cu 1.793 7.224 1.792
    Cu 1.797 9.020 -0.004
    Cu -0.011 7.222 3.601
    Cu -0.008 9.020 5.413
    Cu 1.792 7.225 5.414
    Cu 1.790 9.022 3.601
    Cu -0.010 7.221 7.221
    Cu -0.006 9.019 9.019
    Cu 1.795 7.222 9.022
    Cu 1.795 9.022 7.222
    Cu 3.606 -0.004 -0.004
    Cu 3.606 1.793 1.793
    Cu 5.417 -0.007 1.794
    Cu 5.417 1.794 -0.007
    Cu 3.606 -0.020 3.598
    Cu 3.606 1.777 5.415
    Cu 5.422 -0.007 5.414
    Cu 5.420 1.790 3.601
    Cu 3.606 -0.004 7.225
    Cu 3.606 1.791 9.020
    Cu 5.416 -0.004 9.020
    Cu 5.419 1.792 7.224
    Cu 3.606 3.598 -0.020
    Cu 3.606 5.415 1.777
    Cu 5.420 3.601 1.790
    Cu 5.422 5.414 -0.007
    Cu 3.606 4.508 4.508
    Cu 5.421 3.600 5.415
    Cu 5.421 5.415 3.600
    Cu 3.606 3.600 7.238
    Cu 3.606 5.417 9.036
    Cu 5.422 3.601 9.022
    Cu 5.420 5.414 7.225
    Cu 3.606 7.225 -0.004
    Cu 3.606 9.020 1.791
    Cu 5.419 7.224 1.792
    Cu 5.416 9.020 -0.004
    Cu 3.606 7.238 3.600
    Cu 3.606 9.036 5.417
    Cu 5.420 7.225 5.414
    Cu 5.422 9.022 3.601
    Cu 3.606 7.223 7.223
    Cu 3.606 9.020 9.020
    Cu 5.417 7.222 9.022
    Cu 5.417 9.022 7.222
    Cu 7.219 -0.003 -0.003
    Cu 7.222 1.795 1.795
    Cu 9.016 -0.004 1.797
    Cu 9.016 1.797 -0.004
    Cu 7.221 -0.004 3.603
    Cu 7.223 1.794 5.414
    Cu 9.016 -0.004 5.413
    Cu 9.016 1.791 3.603
    Cu 7.220 -0.003 7.219
    Cu 7.220 1.797 9.019
    Cu 9.016 -0.003 9.018
    Cu 9.016 1.796 7.220
    Cu 7.221 3.603 -0.004
    Cu 7.223 5.414 1.794
    Cu 9.016 3.603 1.791
    Cu 9.016 5.413 -0.004
    Cu 7.239 3.601 3.601
    Cu 7.239 5.414 5.414
    Cu 9.016 3.598 5.417
    Cu 9.016 5.417 3.598
    Cu 7.223 3.601 7.222
    Cu 7.221 5.413 9.020
    Cu 9.016 3.603 9.020
    Cu 9.016 5.413 7.225
    Cu 7.220 7.219 -0.003
    Cu 7.220 9.019 1.797
    Cu 9.016 7.220 1.796
    Cu 9.016 9.018 -0.003
    Cu 7.223 7.222 3.601
    Cu 7.221 9.020 5.413
    Cu 9.016 7.225 5.413
    Cu 9.016 9.020 3.603
    Cu 7.222 7.221 7.221
    Cu 7.219 9.019 9.019
    Cu 9.016 7.218 9.020
    Cu 9.016 9.020 7.218
%ENDBLOCK POSITIONS_ABS_INTERMEDIATE

