#######################################################
#CASTEP cell file: /home/phony_stark/Desktop/RAL/eCSE/neb-perftests/copper-vacancy-morse/cuvac-neb-morse/CuVacMorse.cell
#Created using the Atomic Simulation Environment (ASE)#
#######################################################

%BLOCK LATTICE_CART
10.818734  0.000000  0.000000
 0.000000 10.818734  0.000000
 0.000000  0.000000 10.818734
%ENDBLOCK LATTICE_CART

%BLOCK POSITIONS_ABS
Cu -0.005633 -0.000000 -0.000000
Cu -0.007009  1.796113  1.796113
Cu  1.796684 -0.000000  1.794807
Cu  1.796684  1.794807 -0.000000
Cu -0.008315 -0.000000  3.599807
Cu -0.009561  1.793562  5.409367
Cu  1.788757 -0.000000  5.409367
Cu  1.792640  1.788777  3.595763
Cu -0.008315 -0.000000  7.218927
Cu -0.007009  1.796113  9.022620
Cu  1.796684 -0.000000  9.023927
Cu  1.792640  1.788777  7.222971
Cu -0.008315  3.599807 -0.000000
Cu -0.009561  5.409367  1.793562
Cu  1.792640  3.595763  1.788777
Cu  1.788757  5.409367 -0.000000
Cu -0.014345  3.595763  3.595763
Cu -0.039271  5.409367  5.409367
Cu  1.790828  3.593950  5.409367
Cu  1.790828  5.409367  3.593950
Cu -0.014345  3.595763  7.222971
Cu -0.009561  5.409367  9.025172
Cu  1.792640  3.595763  9.029957
Cu  1.790828  5.409367  7.224784
Cu -0.008315  7.218927 -0.000000
Cu -0.007009  9.022620  1.796113
Cu  1.792640  7.222971  1.788777
Cu  1.796684  9.023927 -0.000000
Cu -0.014345  7.222971  3.595763
Cu -0.009561  9.025172  5.409367
Cu  1.790828  7.224784  5.409367
Cu  1.792640  9.029957  3.595763
Cu -0.014345  7.222971  7.222971
Cu -0.007009  9.022620  9.022620
Cu  1.792640  7.222971  9.029957
Cu  1.792640  9.029957  7.222971
Cu  3.606245 -0.000000 -0.000000
Cu  3.606245  1.793562  1.793562
Cu  5.415805 -0.000000  1.794807
Cu  5.415805  1.794807 -0.000000
Cu  3.606245 -0.000000  3.591879
Cu  3.606245  1.763851  5.409367
Cu  5.423733 -0.000000  5.409367
Cu  5.419849  1.788777  3.595763
Cu  3.606245 -0.000000  7.226855
Cu  3.606245  1.793562  9.025172
Cu  5.415805 -0.000000  9.023927
Cu  5.419849  1.788777  7.222971
Cu  3.606245  3.591879 -0.000000
Cu  3.606245  5.409367  1.763851
Cu  5.419849  3.595763  1.788777
Cu  5.423733  5.409367 -0.000000
Cu  3.606245  3.593950  3.593950
Cu  5.421661  3.593950  5.409367
Cu  5.421661  5.409367  3.593950
Cu  3.606245  3.593950  7.224784
Cu  3.606245  5.409367  9.054882
Cu  5.419849  3.595763  9.029957
Cu  5.421661  5.409367  7.224784
Cu  3.606245  7.226855 -0.000000
Cu  3.606245  9.025172  1.793562
Cu  5.419849  7.222971  1.788777
Cu  5.415805  9.023927 -0.000000
Cu  3.606245  7.224784  3.593950
Cu  3.606245  9.054882  5.409367
Cu  5.421661  7.224784  5.409367
Cu  5.419849  9.029957  3.595763
Cu  3.606245  7.224784  7.224784
Cu  3.606245  9.025172  9.025172
Cu  5.419849  7.222971  9.029957
Cu  5.419849  9.029957  7.222971
Cu  7.218122 -0.000000 -0.000000
Cu  7.219498  1.796113  1.796113
Cu  9.015611 -0.000000  1.797489
Cu  9.015611  1.797489 -0.000000
Cu  7.220805 -0.000000  3.599807
Cu  7.222050  1.793562  5.409367
Cu  9.015611 -0.000000  5.409367
Cu  9.015611  1.794807  3.599807
Cu  7.220805 -0.000000  7.218927
Cu  7.219498  1.796113  9.022620
Cu  9.015611 -0.000000  9.021244
Cu  9.015611  1.794807  7.218927
Cu  7.220805  3.599807 -0.000000
Cu  7.222050  5.409367  1.793562
Cu  9.015611  3.599807  1.794807
Cu  9.015611  5.409367 -0.000000
Cu  7.226835  3.595763  3.595763
Cu  7.251760  5.409367  5.409367
Cu  9.015611  3.591879  5.409367
Cu  9.015611  5.409367  3.591879
Cu  7.226835  3.595763  7.222971
Cu  7.222050  5.409367  9.025172
Cu  9.015611  3.599807  9.023927
Cu  9.015611  5.409367  7.226855
Cu  7.220805  7.218927 -0.000000
Cu  7.219498  9.022620  1.796113
Cu  9.015611  7.218927  1.794807
Cu  9.015611  9.021244 -0.000000
Cu  7.226835  7.222971  3.595763
Cu  7.222050  9.025172  5.409367
Cu  9.015611  7.226855  5.409367
Cu  9.015611  9.023927  3.599807
Cu  7.226835  7.222971  7.222971
Cu  7.219498  9.022620  9.022620
Cu  9.015611  7.218927  9.023927
Cu  9.015611  9.023927  7.218927
%ENDBLOCK POSITIONS_ABS

%BLOCK SPECIES_POT
Cu ../Cu_C19_LDA_OTF.usp
%ENDBLOCK SPECIES_POT

FIX_COM: FALSE
%BLOCK POSITIONS_ABS_PRODUCT
ang
    Cu -0.007 -0.007 -0.007
    Cu -0.014 1.793 1.793
    Cu 1.793 -0.014 1.793
    Cu 1.793 1.793 -0.014
    Cu -0.010 -0.010 3.606
    Cu -0.014 1.793 5.420
    Cu 1.793 -0.014 5.420
    Cu 1.791 1.791 3.606
    Cu -0.007 -0.007 7.219
    Cu -0.008 1.797 9.016
    Cu 1.797 -0.008 9.016
    Cu 1.793 1.793 7.227
    Cu -0.010 3.606 -0.010
    Cu -0.014 5.420 1.793
    Cu 1.791 3.606 1.791
    Cu 1.793 5.420 -0.014
    Cu -0.039 3.606 3.606
    Cu -0.014 5.420 5.420
    Cu 1.791 3.606 5.422
    Cu 1.791 5.422 3.606
    Cu -0.010 3.606 7.222
    Cu -0.008 5.416 9.016
    Cu 1.789 3.606 9.016
    Cu 1.793 5.420 7.227
    Cu -0.007 7.219 -0.007
    Cu -0.008 9.016 1.797
    Cu 1.793 7.227 1.793
    Cu 1.797 9.016 -0.008
    Cu -0.010 7.222 3.606
    Cu -0.008 9.016 5.416
    Cu 1.793 7.227 5.420
    Cu 1.789 9.016 3.606
    Cu -0.007 7.219 7.219
    Cu -0.006 9.016 9.016
    Cu 1.797 7.221 9.016
    Cu 1.797 9.016 7.221
    Cu 3.606 -0.010 -0.010
    Cu 3.606 1.791 1.791
    Cu 5.420 -0.014 1.793
    Cu 5.420 1.793 -0.014
    Cu 3.606 -0.039 3.606
    Cu 3.606 1.791 5.422
    Cu 5.420 -0.014 5.420
    Cu 5.422 1.791 3.606
    Cu 3.606 -0.010 7.222
    Cu 3.606 1.789 9.016
    Cu 5.416 -0.008 9.016
    Cu 5.420 1.793 7.227
    Cu 3.606 3.606 -0.039
    Cu 3.606 5.422 1.791
    Cu 5.422 3.606 1.791
    Cu 5.420 5.420 -0.014
    Cu 3.606 5.422 5.422
    Cu 5.422 3.606 5.422
    Cu 5.422 5.422 3.606
    Cu 3.606 3.606 7.252
    Cu 3.606 5.424 9.016
    Cu 5.424 3.606 9.016
    Cu 5.420 5.420 7.227
    Cu 3.606 7.222 -0.010
    Cu 3.606 9.016 1.789
    Cu 5.420 7.227 1.793
    Cu 5.416 9.016 -0.008
    Cu 3.606 7.252 3.606
    Cu 3.606 9.016 5.424
    Cu 5.420 7.227 5.420
    Cu 5.424 9.016 3.606
    Cu 3.606 7.222 7.222
    Cu 3.606 9.016 9.016
    Cu 5.416 7.221 9.016
    Cu 5.416 9.016 7.221
    Cu 7.219 -0.007 -0.007
    Cu 7.227 1.793 1.793
    Cu 9.016 -0.008 1.797
    Cu 9.016 1.797 -0.008
    Cu 7.222 -0.010 3.606
    Cu 7.227 1.793 5.420
    Cu 9.016 -0.008 5.416
    Cu 9.016 1.789 3.606
    Cu 7.219 -0.007 7.219
    Cu 7.221 1.797 9.016
    Cu 9.016 -0.006 9.016
    Cu 9.016 1.797 7.221
    Cu 7.222 3.606 -0.010
    Cu 7.227 5.420 1.793
    Cu 9.016 3.606 1.789
    Cu 9.016 5.416 -0.008
    Cu 7.252 3.606 3.606
    Cu 7.227 5.420 5.420
    Cu 9.016 3.606 5.424
    Cu 9.016 5.424 3.606
    Cu 7.222 3.606 7.222
    Cu 7.221 5.416 9.016
    Cu 9.016 3.606 9.016
    Cu 9.016 5.416 7.221
    Cu 7.219 7.219 -0.007
    Cu 7.221 9.016 1.797
    Cu 9.016 7.221 1.797
    Cu 9.016 9.016 -0.006
    Cu 7.222 7.222 3.606
    Cu 7.221 9.016 5.416
    Cu 9.016 7.221 5.416
    Cu 9.016 9.016 3.606
    Cu 7.219 7.219 7.219
    Cu 7.218 9.016 9.016
    Cu 9.016 7.218 9.016
    Cu 9.016 9.016 7.218
%ENDBLOCK POSITIONS_ABS_PRODUCT

%BLOCK POSITIONS_ABS_INTERMEDIATE
ang
    Cu -0.006 -0.004 -0.004
    Cu -0.011 1.794 1.794
    Cu 1.795 -0.007 1.794
    Cu 1.795 1.794 -0.007
    Cu -0.009 -0.005 3.603
    Cu -0.012 1.793 5.415
    Cu 1.791 -0.007 5.415
    Cu 1.792 1.790 3.601
    Cu -0.008 -0.004 7.219
    Cu -0.008 1.796 9.019
    Cu 1.797 -0.004 9.020
    Cu 1.793 1.791 7.225
    Cu -0.009 3.603 -0.005
    Cu -0.012 5.415 1.793
    Cu 1.792 3.601 1.790
    Cu 1.791 5.415 -0.007
    Cu -0.027 3.601 3.601
    Cu -0.027 5.415 5.415
    Cu 1.791 3.600 5.416
    Cu 1.791 5.416 3.600
    Cu -0.012 3.601 7.223
    Cu -0.009 5.413 9.020
    Cu 1.791 3.601 9.023
    Cu 1.792 5.415 7.226
    Cu -0.008 7.219 -0.004
    Cu -0.008 9.019 1.796
    Cu 1.793 7.225 1.791
    Cu 1.797 9.020 -0.004
    Cu -0.012 7.223 3.601
    Cu -0.009 9.020 5.413
    Cu 1.792 7.226 5.415
    Cu 1.791 9.023 3.601
    Cu -0.011 7.221 7.221
    Cu -0.006 9.019 9.019
    Cu 1.795 7.222 9.023
    Cu 1.795 9.023 7.222
    Cu 3.606 -0.005 -0.005
    Cu 3.606 1.792 1.792
    Cu 5.418 -0.007 1.794
    Cu 5.418 1.794 -0.007
    Cu 3.606 -0.020 3.599
    Cu 3.606 1.777 5.416
    Cu 5.422 -0.007 5.415
    Cu 5.421 1.790 3.601
    Cu 3.606 -0.005 7.224
    Cu 3.606 1.791 9.020
    Cu 5.416 -0.004 9.020
    Cu 5.420 1.791 7.225
    Cu 3.606 3.599 -0.020
    Cu 3.606 5.416 1.777
    Cu 5.421 3.601 1.790
    Cu 5.422 5.415 -0.007
    Cu 3.606 4.508 4.508
    Cu 5.422 3.600 5.416
    Cu 5.422 5.416 3.600
    Cu 3.606 3.600 7.238
    Cu 3.606 5.417 9.035
    Cu 5.422 3.601 9.023
    Cu 5.421 5.415 7.226
    Cu 3.606 7.224 -0.005
    Cu 3.606 9.020 1.791
    Cu 5.420 7.225 1.791
    Cu 5.416 9.020 -0.004
    Cu 3.606 7.238 3.600
    Cu 3.606 9.035 5.417
    Cu 5.421 7.226 5.415
    Cu 5.422 9.023 3.601
    Cu 3.606 7.223 7.223
    Cu 3.606 9.020 9.020
    Cu 5.418 7.222 9.023
    Cu 5.418 9.023 7.222
    Cu 7.219 -0.004 -0.004
    Cu 7.223 1.794 1.794
    Cu 9.016 -0.004 1.797
    Cu 9.016 1.797 -0.004
    Cu 7.221 -0.005 3.603
    Cu 7.224 1.793 5.415
    Cu 9.016 -0.004 5.413
    Cu 9.016 1.792 3.603
    Cu 7.220 -0.004 7.219
    Cu 7.220 1.796 9.019
    Cu 9.016 -0.003 9.018
    Cu 9.016 1.796 7.220
    Cu 7.221 3.603 -0.005
    Cu 7.224 5.415 1.793
    Cu 9.016 3.603 1.792
    Cu 9.016 5.413 -0.004
    Cu 7.239 3.601 3.601
    Cu 7.239 5.415 5.415
    Cu 9.016 3.599 5.417
    Cu 9.016 5.417 3.599
    Cu 7.224 3.601 7.223
    Cu 7.221 5.413 9.020
    Cu 9.016 3.603 9.020
    Cu 9.016 5.413 7.224
    Cu 7.220 7.219 -0.004
    Cu 7.220 9.019 1.796
    Cu 9.016 7.220 1.796
    Cu 9.016 9.018 -0.003
    Cu 7.224 7.223 3.601
    Cu 7.221 9.020 5.413
    Cu 9.016 7.224 5.413
    Cu 9.016 9.020 3.603
    Cu 7.223 7.221 7.221
    Cu 7.219 9.019 9.019
    Cu 9.016 7.219 9.020
    Cu 9.016 9.020 7.219
%ENDBLOCK POSITIONS_ABS_INTERMEDIATE

