#######################################################
#CASTEP cell file: /home/phony_stark/Desktop/RAL/eCSE/neb-perftests/copper-vacancy-morse/cuvac-neb-morse/CuVacMorse.cell
#Created using the Atomic Simulation Environment (ASE)#
#######################################################

%BLOCK LATTICE_CART
10.818734  0.000000  0.000000
 0.000000 10.818734  0.000000
 0.000000  0.000000 10.818734
%ENDBLOCK LATTICE_CART

%BLOCK POSITIONS_ABS
Cu -0.005669  0.000000  0.000000
Cu -0.007079  1.796044  1.796044
Cu  1.796684  0.000000  1.794700
Cu  1.796684  1.794700  0.000000
Cu -0.008422  0.000000  3.599807
Cu -0.009155  1.793968  5.409367
Cu  1.788924 -0.000000  5.409367
Cu  1.792694  1.788876  3.595816
Cu -0.008422  0.000000  7.218927
Cu -0.007079  1.796044  9.022690
Cu  1.796684  0.000000  9.024034
Cu  1.792694  1.788876  7.222918
Cu -0.008422  3.599807  0.000000
Cu -0.009155  5.409367  1.793968
Cu  1.792694  3.595816  1.788876
Cu  1.788924  5.409367  0.000000
Cu -0.014247  3.595816  3.595816
Cu -0.039124  5.409367  5.409367
Cu  1.791141  3.594263  5.409367
Cu  1.791141  5.409367  3.594263
Cu -0.014247  3.595816  7.222918
Cu -0.009155  5.409367  9.024766
Cu  1.792694  3.595816  9.029858
Cu  1.791141  5.409367  7.224470
Cu -0.008422  7.218927  0.000000
Cu -0.007079  9.022690  1.796044
Cu  1.792694  7.222918  1.788876
Cu  1.796684  9.024034  0.000000
Cu -0.014247  7.222918  3.595816
Cu -0.009155  9.024766  5.409367
Cu  1.791141  7.224470  5.409367
Cu  1.792694  9.029858  3.595816
Cu -0.014247  7.222918  7.222918
Cu -0.007079  9.022690  9.022690
Cu  1.792694  7.222918  9.029858
Cu  1.792694  9.029858  7.222918
Cu  3.606245  0.000000  0.000000
Cu  3.606245  1.793968  1.793968
Cu  5.415805  0.000000  1.794700
Cu  5.415805  1.794700  0.000000
Cu  3.606245 -0.000000  3.592046
Cu  3.606245  1.763999  5.409367
Cu  5.423565 -0.000000  5.409367
Cu  5.419795  1.788876  3.595816
Cu  3.606245 -0.000000  7.226688
Cu  3.606245  1.793968  9.024766
Cu  5.415805 -0.000000  9.024034
Cu  5.419795  1.788876  7.222918
Cu  3.606245  3.592046  0.000000
Cu  3.606245  5.409367  1.763999
Cu  5.419795  3.595816  1.788876
Cu  5.423565  5.409367 -0.000000
Cu  3.606245  3.594263  3.594263
Cu  5.421348  3.594263  5.409367
Cu  5.421348  5.409367  3.594263
Cu  3.606245  3.594263  7.224470
Cu  3.606245  5.409367  9.054735
Cu  5.419795  3.595816  9.029858
Cu  5.421348  5.409367  7.224470
Cu  3.606245  7.226688 -0.000000
Cu  3.606245  9.024766  1.793968
Cu  5.419795  7.222918  1.788876
Cu  5.415805  9.024034  0.000000
Cu  3.606245  7.224470  3.594263
Cu  3.606245  9.054735  5.409367
Cu  5.421348  7.224470  5.409367
Cu  5.419795  9.029858  3.595816
Cu  3.606245  7.224470  7.224470
Cu  3.606245  9.024766  9.024766
Cu  5.419795  7.222918  9.029858
Cu  5.419795  9.029858  7.222918
Cu  7.218159  0.000000  0.000000
Cu  7.219568  1.796044  1.796044
Cu  9.015611  0.000000  1.797453
Cu  9.015611  1.797453  0.000000
Cu  7.220911 -0.000000  3.599807
Cu  7.221644  1.793968  5.409367
Cu  9.015611  0.000000  5.409367
Cu  9.015611  1.794700  3.599807
Cu  7.220911 -0.000000  7.218927
Cu  7.219568  1.796044  9.022690
Cu  9.015611  0.000000  9.021281
Cu  9.015611  1.794700  7.218927
Cu  7.220911  3.599807 -0.000000
Cu  7.221644  5.409367  1.793968
Cu  9.015611  3.599807  1.794700
Cu  9.015611  5.409367  0.000000
Cu  7.226736  3.595816  3.595816
Cu  7.251613  5.409367  5.409367
Cu  9.015611  3.592046  5.409367
Cu  9.015611  5.409367  3.592046
Cu  7.226736  3.595816  7.222918
Cu  7.221644  5.409367  9.024766
Cu  9.015611  3.599807  9.024034
Cu  9.015611  5.409367  7.226688
Cu  7.220911  7.218927  0.000000
Cu  7.219568  9.022690  1.796044
Cu  9.015611  7.218927  1.794700
Cu  9.015611  9.021281  0.000000
Cu  7.226736  7.222918  3.595816
Cu  7.221644  9.024766  5.409367
Cu  9.015611  7.226688  5.409367
Cu  9.015611  9.024034  3.599807
Cu  7.226736  7.222918  7.222918
Cu  7.219568  9.022690  9.022690
Cu  9.015611  7.218927  9.024034
Cu  9.015611  9.024034  7.218927
%ENDBLOCK POSITIONS_ABS

%BLOCK SPECIES_POT
Cu ../Cu_C19_LDA_OTF.usp
%ENDBLOCK SPECIES_POT

FIX_COM: FALSE
%BLOCK POSITIONS_ABS_PRODUCT
ang
    Cu -0.007 -0.007 -0.007
    Cu -0.014 1.793 1.793
    Cu 1.793 -0.014 1.793
    Cu 1.793 1.793 -0.014
    Cu -0.009 -0.009 3.606
    Cu -0.014 1.793 5.420
    Cu 1.793 -0.014 5.420
    Cu 1.791 1.791 3.606
    Cu -0.007 -0.007 7.220
    Cu -0.008 1.797 9.016
    Cu 1.797 -0.008 9.016
    Cu 1.793 1.793 7.227
    Cu -0.009 3.606 -0.009
    Cu -0.014 5.420 1.793
    Cu 1.791 3.606 1.791
    Cu 1.793 5.420 -0.014
    Cu -0.039 3.606 3.606
    Cu -0.014 5.420 5.420
    Cu 1.791 3.606 5.421
    Cu 1.791 5.421 3.606
    Cu -0.009 3.606 7.222
    Cu -0.008 5.416 9.016
    Cu 1.789 3.606 9.016
    Cu 1.793 5.420 7.227
    Cu -0.007 7.220 -0.007
    Cu -0.008 9.016 1.797
    Cu 1.793 7.227 1.793
    Cu 1.797 9.016 -0.008
    Cu -0.009 7.222 3.606
    Cu -0.008 9.016 5.416
    Cu 1.793 7.227 5.420
    Cu 1.789 9.016 3.606
    Cu -0.007 7.220 7.220
    Cu -0.006 9.016 9.016
    Cu 1.797 7.221 9.016
    Cu 1.797 9.016 7.221
    Cu 3.606 -0.009 -0.009
    Cu 3.606 1.791 1.791
    Cu 5.420 -0.014 1.793
    Cu 5.420 1.793 -0.014
    Cu 3.606 -0.039 3.606
    Cu 3.606 1.791 5.421
    Cu 5.420 -0.014 5.420
    Cu 5.421 1.791 3.606
    Cu 3.606 -0.009 7.222
    Cu 3.606 1.789 9.016
    Cu 5.416 -0.008 9.016
    Cu 5.420 1.793 7.227
    Cu 3.606 3.606 -0.039
    Cu 3.606 5.421 1.791
    Cu 5.421 3.606 1.791
    Cu 5.420 5.420 -0.014
    Cu 3.606 5.421 5.421
    Cu 5.421 3.606 5.421
    Cu 5.421 5.421 3.606
    Cu 3.606 3.606 7.252
    Cu 3.606 5.424 9.016
    Cu 5.424 3.606 9.016
    Cu 5.420 5.420 7.227
    Cu 3.606 7.222 -0.009
    Cu 3.606 9.016 1.789
    Cu 5.420 7.227 1.793
    Cu 5.416 9.016 -0.008
    Cu 3.606 7.252 3.606
    Cu 3.606 9.016 5.424
    Cu 5.420 7.227 5.420
    Cu 5.424 9.016 3.606
    Cu 3.606 7.222 7.222
    Cu 3.606 9.016 9.016
    Cu 5.416 7.221 9.016
    Cu 5.416 9.016 7.221
    Cu 7.220 -0.007 -0.007
    Cu 7.227 1.793 1.793
    Cu 9.016 -0.008 1.797
    Cu 9.016 1.797 -0.008
    Cu 7.222 -0.009 3.606
    Cu 7.227 1.793 5.420
    Cu 9.016 -0.008 5.416
    Cu 9.016 1.789 3.606
    Cu 7.220 -0.007 7.220
    Cu 7.221 1.797 9.016
    Cu 9.016 -0.006 9.016
    Cu 9.016 1.797 7.221
    Cu 7.222 3.606 -0.009
    Cu 7.227 5.420 1.793
    Cu 9.016 3.606 1.789
    Cu 9.016 5.416 -0.008
    Cu 7.252 3.606 3.606
    Cu 7.227 5.420 5.420
    Cu 9.016 3.606 5.424
    Cu 9.016 5.424 3.606
    Cu 7.222 3.606 7.222
    Cu 7.221 5.416 9.016
    Cu 9.016 3.606 9.016
    Cu 9.016 5.416 7.221
    Cu 7.220 7.220 -0.007
    Cu 7.221 9.016 1.797
    Cu 9.016 7.221 1.797
    Cu 9.016 9.016 -0.006
    Cu 7.222 7.222 3.606
    Cu 7.221 9.016 5.416
    Cu 9.016 7.221 5.416
    Cu 9.016 9.016 3.606
    Cu 7.220 7.220 7.220
    Cu 7.218 9.016 9.016
    Cu 9.016 7.218 9.016
    Cu 9.016 9.016 7.218
%ENDBLOCK POSITIONS_ABS_PRODUCT

%BLOCK POSITIONS_ABS_INTERMEDIATE
ang
    Cu -0.006 -0.004 -0.004
    Cu -0.011 1.794 1.794
    Cu 1.795 -0.007 1.794
    Cu 1.795 1.794 -0.007
    Cu -0.009 -0.005 3.603
    Cu -0.012 1.793 5.415
    Cu 1.791 -0.007 5.415
    Cu 1.792 1.790 3.601
    Cu -0.008 -0.004 7.219
    Cu -0.008 1.796 9.019
    Cu 1.797 -0.004 9.020
    Cu 1.793 1.791 7.225
    Cu -0.009 3.603 -0.005
    Cu -0.012 5.415 1.793
    Cu 1.792 3.601 1.790
    Cu 1.791 5.415 -0.007
    Cu -0.027 3.601 3.601
    Cu -0.027 5.415 5.415
    Cu 1.791 3.600 5.415
    Cu 1.791 5.415 3.600
    Cu -0.012 3.601 7.222
    Cu -0.009 5.413 9.020
    Cu 1.791 3.601 9.023
    Cu 1.792 5.415 7.226
    Cu -0.008 7.219 -0.004
    Cu -0.008 9.019 1.796
    Cu 1.793 7.225 1.791
    Cu 1.797 9.020 -0.004
    Cu -0.012 7.222 3.601
    Cu -0.009 9.020 5.413
    Cu 1.792 7.226 5.415
    Cu 1.791 9.023 3.601
    Cu -0.011 7.221 7.221
    Cu -0.006 9.019 9.019
    Cu 1.795 7.222 9.023
    Cu 1.795 9.023 7.222
    Cu 3.606 -0.005 -0.005
    Cu 3.606 1.793 1.793
    Cu 5.418 -0.007 1.794
    Cu 5.418 1.794 -0.007
    Cu 3.606 -0.020 3.599
    Cu 3.606 1.778 5.415
    Cu 5.422 -0.007 5.415
    Cu 5.421 1.790 3.601
    Cu 3.606 -0.005 7.224
    Cu 3.606 1.791 9.020
    Cu 5.416 -0.004 9.020
    Cu 5.420 1.791 7.225
    Cu 3.606 3.599 -0.020
    Cu 3.606 5.415 1.778
    Cu 5.421 3.601 1.790
    Cu 5.422 5.415 -0.007
    Cu 3.606 4.508 4.508
    Cu 5.421 3.600 5.415
    Cu 5.421 5.415 3.600
    Cu 3.606 3.600 7.238
    Cu 3.606 5.416 9.035
    Cu 5.422 3.601 9.023
    Cu 5.421 5.415 7.226
    Cu 3.606 7.224 -0.005
    Cu 3.606 9.020 1.791
    Cu 5.420 7.225 1.791
    Cu 5.416 9.020 -0.004
    Cu 3.606 7.238 3.600
    Cu 3.606 9.035 5.416
    Cu 5.421 7.226 5.415
    Cu 5.422 9.023 3.601
    Cu 3.606 7.223 7.223
    Cu 3.606 9.020 9.020
    Cu 5.418 7.222 9.023
    Cu 5.418 9.023 7.222
    Cu 7.219 -0.004 -0.004
    Cu 7.223 1.794 1.794
    Cu 9.016 -0.004 1.797
    Cu 9.016 1.797 -0.004
    Cu 7.221 -0.005 3.603
    Cu 7.224 1.793 5.415
    Cu 9.016 -0.004 5.413
    Cu 9.016 1.792 3.603
    Cu 7.220 -0.004 7.219
    Cu 7.220 1.796 9.019
    Cu 9.016 -0.003 9.018
    Cu 9.016 1.796 7.220
    Cu 7.221 3.603 -0.005
    Cu 7.224 5.415 1.793
    Cu 9.016 3.603 1.792
    Cu 9.016 5.413 -0.004
    Cu 7.239 3.601 3.601
    Cu 7.239 5.415 5.415
    Cu 9.016 3.599 5.416
    Cu 9.016 5.416 3.599
    Cu 7.224 3.601 7.222
    Cu 7.221 5.413 9.020
    Cu 9.016 3.603 9.020
    Cu 9.016 5.413 7.224
    Cu 7.220 7.219 -0.004
    Cu 7.220 9.019 1.796
    Cu 9.016 7.220 1.796
    Cu 9.016 9.018 -0.003
    Cu 7.224 7.222 3.601
    Cu 7.221 9.020 5.413
    Cu 9.016 7.224 5.413
    Cu 9.016 9.020 3.603
    Cu 7.223 7.221 7.221
    Cu 7.219 9.019 9.019
    Cu 9.016 7.219 9.020
    Cu 9.016 9.020 7.219
%ENDBLOCK POSITIONS_ABS_INTERMEDIATE

