#######################################################
#CASTEP cell file: outputs/CuVac-ASE-2.cell
#Created using the Atomic Simulation Environment (ASE)#
#######################################################

%BLOCK LATTICE_CART
10.818734  0.000000  0.000000
 0.000000 10.818734  0.000000
 0.000000  0.000000 10.818734
%ENDBLOCK LATTICE_CART

%BLOCK POSITIONS_ABS
Cu  0.005679 -0.000573 -0.000573
Cu  0.002305  1.797605  1.797605
Cu  1.808909  0.005028  1.808379
Cu  1.808909  1.808379  0.005028
Cu  0.008669 -0.000074  3.600464
Cu -0.050214  1.763098  5.420630
Cu  1.796254  0.008950  5.410546
Cu  1.806118  1.843581  3.627299
Cu -0.003205 -0.010957  7.226987
Cu -0.002488  1.789993  9.031013
Cu  1.807863 -0.000468  9.021402
Cu  1.783444  1.792533  7.222598
Cu  0.008669  3.600464 -0.000074
Cu -0.050214  5.420630  1.763098
Cu  1.806118  3.627299  1.843581
Cu  1.796254  5.410546  0.008950
Cu -0.072477  3.592370  3.592370
Cu -0.086646  5.428162  5.428162
Cu  1.631987  3.579799  5.458654
Cu  1.631987  5.458654  3.579799
Cu -0.057552  3.593709  7.258817
Cu  0.002663  5.415417  9.025169
Cu  1.797542  3.603397  9.008811
Cu  1.784318  5.402476  7.198643
Cu -0.003205  7.226987 -0.010957
Cu -0.002488  9.031013  1.789993
Cu  1.783444  7.222598  1.792533
Cu  1.807863  9.021402 -0.000468
Cu -0.057552  7.258817  3.593709
Cu  0.002663  9.025169  5.415417
Cu  1.784318  7.198643  5.402476
Cu  1.797542  9.008811  3.603397
Cu -0.008121  7.226554  7.226554
Cu  0.003989  9.021543  9.021543
Cu  1.803697  7.214571  9.020776
Cu  1.803697  9.020776  7.214571
Cu  3.606245  0.008687  0.008687
Cu  3.606245  1.841852  1.841852
Cu  5.403580  0.005028  1.808379
Cu  5.403580  1.808379  0.005028
Cu  3.606245 -0.006551  3.609332
Cu  3.606245  1.830109  5.401281
Cu  5.416235  0.008950  5.410546
Cu  5.406371  1.843581  3.627299
Cu  3.606245  0.009394  7.209605
Cu  3.606245  1.810648  9.004926
Cu  5.404626 -0.000468  9.021402
Cu  5.429045  1.792533  7.222598
Cu  3.606245  3.609332 -0.006551
Cu  3.606245  5.401281  1.830109
Cu  5.406371  3.627299  1.843581
Cu  5.416235  5.410546  0.008950
Cu  3.606244  4.185291  4.185291
Cu  5.580502  3.579799  5.458654
Cu  5.580502  5.458654  3.579799
Cu  3.606245  3.624557  7.160384
Cu  3.606245  5.406373  9.032188
Cu  5.414947  3.603397  9.008811
Cu  5.428171  5.402476  7.198643
Cu  3.606245  7.209605  0.009394
Cu  3.606245  9.004926  1.810648
Cu  5.429045  7.222598  1.792533
Cu  5.404626  9.021402 -0.000468
Cu  3.606245  7.160384  3.624557
Cu  3.606245  9.032188  5.406373
Cu  5.428171  7.198643  5.402476
Cu  5.414947  9.008811  3.603397
Cu  3.606245  7.198088  7.198088
Cu  3.606245  9.015843  9.015843
Cu  5.408792  7.214571  9.020776
Cu  5.408792  9.020776  7.214571
Cu  7.206810 -0.000573 -0.000573
Cu  7.210184  1.797605  1.797605
Cu  9.015612  0.000043  1.791217
Cu  9.015612  1.791217  0.000043
Cu  7.203820 -0.000074  3.600464
Cu  7.262703  1.763098  5.420630
Cu  9.015612 -0.027142  5.417252
Cu  9.015612  1.770161  3.593781
Cu  7.215694 -0.010957  7.226987
Cu  7.214977  1.789993  9.031013
Cu  9.015612 -0.007829  9.027361
Cu  9.015612  1.775143  7.240477
Cu  7.203820  3.600464 -0.000074
Cu  7.262703  5.420630  1.763098
Cu  9.015612  3.593781  1.770161
Cu  9.015612  5.417252 -0.027142
Cu  7.284966  3.592370  3.592370
Cu  7.299135  5.428162  5.428162
Cu  9.015612  3.586295  5.427763
Cu  9.015612  5.427763  3.586295
Cu  7.270041  3.593709  7.258817
Cu  7.209826  5.415417  9.025169
Cu  9.015612  3.597035  9.051279
Cu  9.015612  5.423174  7.252375
Cu  7.215694  7.226987 -0.010957
Cu  7.214977  9.031013  1.789993
Cu  9.015612  7.240477  1.775143
Cu  9.015612  9.027361 -0.007829
Cu  7.270041  7.258817  3.593709
Cu  7.209826  9.025169  5.415417
Cu  9.015612  7.252375  5.423174
Cu  9.015612  9.051279  3.597035
Cu  7.220610  7.226554  7.226554
Cu  7.208500  9.021543  9.021543
Cu  9.015612  7.227458  9.022442
Cu  9.015612  9.022442  7.227458
%ENDBLOCK POSITIONS_ABS

