#######################################################
#CASTEP cell file: outputs/CuVac-SOCKET-1.cell
#Created using the Atomic Simulation Environment (ASE)#
#######################################################

%BLOCK LATTICE_CART
10.818734  0.000000  0.000000
 0.000000 10.818734  0.000000
 0.000000  0.000000 10.818734
%ENDBLOCK LATTICE_CART

%BLOCK POSITIONS_ABS
Cu  0.015800  0.007300  0.007300
Cu  0.006959  1.803135  1.803135
Cu  1.818299  0.017154  1.817844
Cu  1.818299  1.817844  0.017154
Cu  0.009127  0.006550  3.602177
Cu -0.036976  1.777851  5.422016
Cu  1.794970  0.009993  5.411879
Cu  1.800827  1.840219  3.631394
Cu  0.000837 -0.003266  7.232085
Cu  0.003521  1.793283  9.036986
Cu  1.815674  0.009123  9.027046
Cu  1.785246  1.800967  7.219673
Cu  0.009127  3.602177  0.006550
Cu -0.036976  5.422016  1.777851
Cu  1.800827  3.631394  1.840219
Cu  1.794970  5.411879  0.009993
Cu -0.061837  3.598631  3.598631
Cu -0.091607  5.430632  5.430632
Cu  1.687698  3.607727  5.441558
Cu  1.687698  5.441558  3.607727
Cu -0.050497  3.595509  7.254239
Cu -0.004219  5.417899  9.036497
Cu  1.797774  3.606355  9.016083
Cu  1.765402  5.414523  7.218697
Cu  0.000837  7.232085 -0.003266
Cu  0.003521  9.036986  1.793283
Cu  1.785246  7.219673  1.800967
Cu  1.815674  9.027046  0.009123
Cu -0.050497  7.254239  3.595509
Cu -0.004219  9.036497  5.417899
Cu  1.765402  7.218697  5.414523
Cu  1.797774  9.016083  3.606355
Cu -0.018163  7.238322  7.238322
Cu  0.009626  9.031388  9.031388
Cu  1.803316  7.221165  9.028072
Cu  1.803316  9.028072  7.221165
Cu  3.606244  0.022121  0.022121
Cu  3.606244  1.867223  1.867223
Cu  5.394190  0.017154  1.817844
Cu  5.394190  1.817844  0.017154
Cu  3.606244  0.007749  3.614581
Cu  3.606244  1.807112  5.415223
Cu  5.417519  0.009993  5.411879
Cu  5.411662  1.840219  3.631394
Cu  3.606244  0.010942  7.213996
Cu  3.606244  1.820042  9.006416
Cu  5.396815  0.009123  9.027046
Cu  5.427243  1.800967  7.219673
Cu  3.606244  3.614581  0.007749
Cu  3.606244  5.415223  1.807112
Cu  5.411662  3.631394  1.840219
Cu  5.417519  5.411879  0.009993
Cu  3.606244  3.807468  3.807468
Cu  5.524791  3.607727  5.441558
Cu  5.524791  5.441558  3.607727
Cu  3.606244  3.632270  7.170120
Cu  3.606244  5.408755  9.039031
Cu  5.414715  3.606355  9.016083
Cu  5.447087  5.414523  7.218697
Cu  3.606244  7.213996  0.010942
Cu  3.606244  9.006416  1.820042
Cu  5.427243  7.219673  1.800967
Cu  5.396815  9.027046  0.009123
Cu  3.606244  7.170120  3.632270
Cu  3.606244  9.039031  5.408755
Cu  5.447087  7.218697  5.414523
Cu  5.414715  9.016083  3.606355
Cu  3.606244  7.203065  7.203065
Cu  3.606244  9.021492  9.021492
Cu  5.409173  7.221165  9.028072
Cu  5.409173  9.028072  7.221165
Cu  7.196689  0.007300  0.007300
Cu  7.205530  1.803135  1.803135
Cu  9.015612  0.006093  1.792442
Cu  9.015612  1.792442  0.006093
Cu  7.203362  0.006550  3.602177
Cu  7.249465  1.777851  5.422016
Cu  9.015612 -0.013254  5.419526
Cu  9.015612  1.775776  3.596222
Cu  7.211652 -0.003266  7.232085
Cu  7.208968  1.793283  9.036986
Cu  9.015612 -0.001453  9.036389
Cu  9.015612  1.776661  7.245203
Cu  7.203362  3.602177  0.006550
Cu  7.249465  5.422016  1.777851
Cu  9.015612  3.596222  1.775776
Cu  9.015612  5.419526 -0.013254
Cu  7.274326  3.598631  3.598631
Cu  7.304096  5.430632  5.430632
Cu  9.015612  3.585952  5.429533
Cu  9.015612  5.429533  3.585952
Cu  7.262986  3.595509  7.254239
Cu  7.216708  5.417899  9.036497
Cu  9.015612  3.596076  9.055370
Cu  9.015612  5.426323  7.262625
Cu  7.211652  7.232085 -0.003266
Cu  7.208968  9.036986  1.793283
Cu  9.015612  7.245203  1.776661
Cu  9.015612  9.036389 -0.001453
Cu  7.262986  7.254239  3.595509
Cu  7.216708  9.036497  5.417899
Cu  9.015612  7.262625  5.426323
Cu  9.015612  9.055370  3.596076
Cu  7.230652  7.238322  7.238322
Cu  7.202863  9.031388  9.031388
Cu  9.015612  7.237422  9.035895
Cu  9.015612  9.035895  7.237422
%ENDBLOCK POSITIONS_ABS

