#######################################################
#CASTEP cell file: outputs/CuVac-ASE-6.cell
#Created using the Atomic Simulation Environment (ASE)#
#######################################################

%BLOCK LATTICE_CART
10.818734  0.000000  0.000000
 0.000000 10.818734  0.000000
 0.000000  0.000000 10.818734
%ENDBLOCK LATTICE_CART

%BLOCK POSITIONS_ABS
Cu -0.007079 -0.007079 -0.007079
Cu -0.014247  1.792694  1.792694
Cu  1.792694 -0.014247  1.792694
Cu  1.792694  1.792694 -0.014247
Cu -0.009155 -0.009155  3.606245
Cu -0.014247  1.792694  5.419795
Cu  1.792694 -0.014247  5.419795
Cu  1.791141  1.791141  3.606245
Cu -0.007079 -0.007079  7.219568
Cu -0.008422  1.796684  9.015611
Cu  1.796684 -0.008422  9.015611
Cu  1.792694  1.792694  7.226736
Cu -0.009155  3.606245 -0.009155
Cu -0.014247  5.419795  1.792694
Cu  1.791141  3.606245  1.791141
Cu  1.792694  5.419795 -0.014247
Cu -0.039124  3.606245  3.606245
Cu -0.014247  5.419795  5.419795
Cu  1.791141  3.606245  5.421348
Cu  1.791141  5.421348  3.606245
Cu -0.009155  3.606245  7.221644
Cu -0.008422  5.415805  9.015611
Cu  1.788924  3.606245  9.015611
Cu  1.792694  5.419795  7.226736
Cu -0.007079  7.219568 -0.007079
Cu -0.008422  9.015611  1.796684
Cu  1.792694  7.226736  1.792694
Cu  1.796684  9.015611 -0.008422
Cu -0.009155  7.221644  3.606245
Cu -0.008422  9.015611  5.415805
Cu  1.792694  7.226736  5.419795
Cu  1.788924  9.015611  3.606245
Cu -0.007079  7.219568  7.219568
Cu -0.005669  9.015611  9.015611
Cu  1.796684  7.220911  9.015611
Cu  1.796684  9.015611  7.220911
Cu  3.606245 -0.009155 -0.009155
Cu  3.606245  1.791141  1.791141
Cu  5.419795 -0.014247  1.792694
Cu  5.419795  1.792694 -0.014247
Cu  3.606245 -0.039124  3.606245
Cu  3.606245  1.791141  5.421348
Cu  5.419795 -0.014247  5.419795
Cu  5.421348  1.791141  3.606245
Cu  3.606245 -0.009155  7.221644
Cu  3.606245  1.788924  9.015611
Cu  5.415805 -0.008422  9.015611
Cu  5.419795  1.792694  7.226736
Cu  3.606245  3.606245 -0.039124
Cu  3.606245  5.421348  1.791141
Cu  5.421348  3.606245  1.791141
Cu  5.419795  5.419795 -0.014247
Cu  3.606245  5.421348  5.421348
Cu  5.421348  3.606245  5.421348
Cu  5.421348  5.421348  3.606245
Cu  3.606245  3.606245  7.251613
Cu  3.606245  5.423565  9.015611
Cu  5.423565  3.606245  9.015611
Cu  5.419795  5.419795  7.226736
Cu  3.606245  7.221644 -0.009155
Cu  3.606245  9.015611  1.788924
Cu  5.419795  7.226736  1.792694
Cu  5.415805  9.015611 -0.008422
Cu  3.606245  7.251613  3.606245
Cu  3.606245  9.015611  5.423565
Cu  5.419795  7.226736  5.419795
Cu  5.423565  9.015611  3.606245
Cu  3.606245  7.221644  7.221644
Cu  3.606245  9.015611  9.015611
Cu  5.415805  7.220911  9.015611
Cu  5.415805  9.015611  7.220911
Cu  7.219568 -0.007079 -0.007079
Cu  7.226736  1.792694  1.792694
Cu  9.015611 -0.008422  1.796684
Cu  9.015611  1.796684 -0.008422
Cu  7.221644 -0.009155  3.606245
Cu  7.226736  1.792694  5.419795
Cu  9.015611 -0.008422  5.415805
Cu  9.015611  1.788924  3.606245
Cu  7.219568 -0.007079  7.219568
Cu  7.220911  1.796684  9.015611
Cu  9.015611 -0.005669  9.015611
Cu  9.015611  1.796684  7.220911
Cu  7.221644  3.606245 -0.009155
Cu  7.226736  5.419795  1.792694
Cu  9.015611  3.606245  1.788924
Cu  9.015611  5.415805 -0.008422
Cu  7.251613  3.606245  3.606245
Cu  7.226736  5.419795  5.419795
Cu  9.015611  3.606245  5.423565
Cu  9.015611  5.423565  3.606245
Cu  7.221644  3.606245  7.221644
Cu  7.220911  5.415805  9.015611
Cu  9.015611  3.606245  9.015611
Cu  9.015611  5.415805  7.220911
Cu  7.219568  7.219568 -0.007079
Cu  7.220911  9.015611  1.796684
Cu  9.015611  7.220911  1.796684
Cu  9.015611  9.015611 -0.005669
Cu  7.221644  7.221644  3.606245
Cu  7.220911  9.015611  5.415805
Cu  9.015611  7.220911  5.415805
Cu  9.015611  9.015611  3.606245
Cu  7.219568  7.219568  7.219568
Cu  7.218159  9.015611  9.015611
Cu  9.015611  7.218159  9.015611
Cu  9.015611  9.015611  7.218159
%ENDBLOCK POSITIONS_ABS

