#######################################################
#CASTEP cell file: outputs/CuVac-SOCKET-5.cell
#Created using the Atomic Simulation Environment (ASE)#
#######################################################

%BLOCK LATTICE_CART
10.818734  0.000000  0.000000
 0.000000 10.818734  0.000000
 0.000000  0.000000 10.818734
%ENDBLOCK LATTICE_CART

%BLOCK POSITIONS_ABS
Cu  0.008631 -0.014668 -0.014668
Cu -0.017693  1.778731  1.778731
Cu  1.802797 -0.011956  1.794910
Cu  1.802797  1.794910 -0.011956
Cu -0.004262 -0.019647  3.598544
Cu -0.048748  1.763202  5.420452
Cu  1.797523 -0.000633  5.410228
Cu  1.767281  1.797701  3.602108
Cu  0.002821 -0.020112  7.222676
Cu  0.000282  1.784680  9.019277
Cu  1.814489 -0.010725  9.007576
Cu  1.785646  1.796196  7.215710
Cu -0.004262  3.598544 -0.019647
Cu -0.048748  5.420452  1.763202
Cu  1.767281  3.602108  1.797701
Cu  1.797523  5.410228 -0.000633
Cu -0.088731  3.586486  3.586486
Cu -0.059905  5.417669  5.417669
Cu  1.691587  3.575938  5.409816
Cu  1.691587  5.409816  3.575938
Cu -0.035997  3.594526  7.237695
Cu  0.008017  5.413965  9.010136
Cu  1.794681  3.604209  9.006619
Cu  1.799987  5.386881  7.178828
Cu  0.002821  7.222676 -0.020112
Cu  0.000282  9.019277  1.784680
Cu  1.785646  7.215710  1.796196
Cu  1.814489  9.007576 -0.010725
Cu -0.035997  7.237695  3.594526
Cu  0.008017  9.010136  5.413965
Cu  1.799987  7.178828  5.386881
Cu  1.794681  9.006619  3.604209
Cu  0.005901  7.213493  7.213493
Cu  0.014403  9.009303  9.009303
Cu  1.816659  7.199724  9.000359
Cu  1.816659  9.000359  7.199724
Cu  3.606244 -0.005433 -0.005433
Cu  3.606244  1.812080  1.812080
Cu  5.409692 -0.011956  1.794910
Cu  5.409692  1.794910 -0.011956
Cu  3.606244 -0.023688  3.607298
Cu  3.606244  1.843326  5.385517
Cu  5.414966 -0.000633  5.410228
Cu  5.445208  1.797701  3.602108
Cu  3.606244  0.008617  7.197501
Cu  3.606244  1.801522  9.005580
Cu  5.398000 -0.010725  9.007576
Cu  5.426843  1.796196  7.215710
Cu  3.606244  3.607298 -0.023688
Cu  3.606244  5.385517  1.843326
Cu  5.445208  3.602108  1.797701
Cu  5.414966  5.410228 -0.000633
Cu  3.606244  5.204186  5.204186
Cu  5.520902  3.575938  5.409816
Cu  5.520902  5.409816  3.575938
Cu  3.606244  3.601897  7.210090
Cu  3.606244  5.402743  9.008959
Cu  5.417808  3.604209  9.006619
Cu  5.412502  5.386881  7.178828
Cu  3.606244  7.197501  0.008617
Cu  3.606244  9.005580  1.801522
Cu  5.426843  7.215710  1.796196
Cu  5.398000  9.007576 -0.010725
Cu  3.606244  7.210090  3.601897
Cu  3.606244  9.008959  5.402743
Cu  5.412502  7.178828  5.386881
Cu  5.417808  9.006619  3.604209
Cu  3.606244  7.154934  7.154934
Cu  3.606244  8.995868  8.995868
Cu  5.395830  7.199724  9.000359
Cu  5.395830  9.000359  7.199724
Cu  7.203858 -0.014668 -0.014668
Cu  7.230182  1.778731  1.778731
Cu  9.015612 -0.018955  1.779752
Cu  9.015612  1.779752 -0.018955
Cu  7.216751 -0.019647  3.598544
Cu  7.261237  1.763202  5.420452
Cu  9.015612 -0.037854  5.419692
Cu  9.015612  1.755284  3.590570
Cu  7.209668 -0.020112  7.222676
Cu  7.212207  1.784680  9.019277
Cu  9.015612 -0.019341  9.017560
Cu  9.015612  1.772180  7.238455
Cu  7.216751  3.598544 -0.019647
Cu  7.261237  5.420452  1.763202
Cu  9.015612  3.590570  1.755284
Cu  9.015612  5.419692 -0.037854
Cu  7.301220  3.586486  3.586486
Cu  7.272394  5.417669  5.417669
Cu  9.015612  3.587467  5.429717
Cu  9.015612  5.429717  3.587467
Cu  7.248486  3.594526  7.237695
Cu  7.204472  5.413965  9.010136
Cu  9.015612  3.596971  9.028979
Cu  9.015612  5.419661  7.239528
Cu  7.209668  7.222676 -0.020112
Cu  7.212207  9.019277  1.784680
Cu  9.015612  7.238455  1.772180
Cu  9.015612  9.017560 -0.019341
Cu  7.248486  7.237695  3.594526
Cu  7.204472  9.010136  5.413965
Cu  9.015612  7.239528  5.419661
Cu  9.015612  9.028979  3.596971
Cu  7.206588  7.213493  7.213493
Cu  7.198086  9.009303  9.009303
Cu  9.015612  7.223395  9.010357
Cu  9.015612  9.010357  7.223395
%ENDBLOCK POSITIONS_ABS

