#######################################################
#CASTEP cell file: outputs/CuVac-ASE-2.cell
#Created using the Atomic Simulation Environment (ASE)#
#######################################################

%BLOCK LATTICE_CART
10.818734  0.000000  0.000000
 0.000000 10.818734  0.000000
 0.000000  0.000000 10.818734
%ENDBLOCK LATTICE_CART

%BLOCK POSITIONS_ABS
Cu  0.003188 -0.000235 -0.000235
Cu  0.002224  1.798056  1.798056
Cu  1.807071  0.004186  1.807125
Cu  1.807071  1.807125  0.004186
Cu  0.008129  0.000489  3.600871
Cu -0.049237  1.763576  5.420179
Cu  1.795858  0.008518  5.410800
Cu  1.808290  1.842354  3.626821
Cu -0.004650 -0.010676  7.226460
Cu -0.003915  1.790275  9.030351
Cu  1.805456 -0.001129  9.021685
Cu  1.783060  1.790546  7.224474
Cu  0.008129  3.600871  0.000489
Cu -0.049237  5.420179  1.763576
Cu  1.808290  3.626821  1.842354
Cu  1.795858  5.410800  0.008518
Cu -0.068877  3.593201  3.593201
Cu -0.082519  5.427106  5.427106
Cu  1.633956  3.577710  5.460430
Cu  1.633956  5.460430  3.577710
Cu -0.056365  3.594081  7.258083
Cu  0.002292  5.414859  9.024036
Cu  1.797041  3.602975  9.009063
Cu  1.787181  5.402380  7.199012
Cu -0.004650  7.226460 -0.010676
Cu -0.003915  9.030351  1.790275
Cu  1.783060  7.224474  1.790546
Cu  1.805456  9.021685 -0.001129
Cu -0.056365  7.258083  3.594081
Cu  0.002292  9.024036  5.414859
Cu  1.787181  7.199012  5.402380
Cu  1.797041  9.009063  3.602975
Cu -0.007614  7.225555  7.225555
Cu  0.001577  9.020763  9.020763
Cu  1.802214  7.215390  9.021037
Cu  1.802214  9.021037  7.215390
Cu  3.606245  0.007513  0.007513
Cu  3.606245  1.837720  1.837720
Cu  5.405418  0.004186  1.807125
Cu  5.405418  1.807125  0.004186
Cu  3.606245 -0.007755  3.608626
Cu  3.606245  1.828141  5.402689
Cu  5.416631  0.008518  5.410800
Cu  5.404199  1.842354  3.626821
Cu  3.606245  0.008137  7.211492
Cu  3.606245  1.808273  9.006268
Cu  5.407033 -0.001129  9.021685
Cu  5.429429  1.790546  7.224474
Cu  3.606245  3.608626 -0.007755
Cu  3.606245  5.402689  1.828141
Cu  5.404199  3.626821  1.842354
Cu  5.416631  5.410800  0.008518
Cu  3.606245  4.196047  4.196047
Cu  5.578533  3.577710  5.460430
Cu  5.578533  5.460430  3.577710
Cu  3.606245  3.622084  7.163975
Cu  3.606245  5.407009  9.032971
Cu  5.415448  3.602975  9.009063
Cu  5.425308  5.402380  7.199012
Cu  3.606245  7.211492  0.008137
Cu  3.606245  9.006268  1.808273
Cu  5.429429  7.224474  1.790546
Cu  5.407033  9.021685 -0.001129
Cu  3.606245  7.163975  3.622084
Cu  3.606245  9.032971  5.407009
Cu  5.425308  7.199012  5.402380
Cu  5.415448  9.009063  3.602975
Cu  3.606245  7.201008  7.201008
Cu  3.606245  9.016530  9.016530
Cu  5.410275  7.215390  9.021037
Cu  5.410275  9.021037  7.215390
Cu  7.209301 -0.000235 -0.000235
Cu  7.210265  1.798056  1.798056
Cu  9.015611  0.001187  1.792492
Cu  9.015611  1.792492  0.001187
Cu  7.204360  0.000489  3.600871
Cu  7.261726  1.763576  5.420179
Cu  9.015611 -0.026481  5.416117
Cu  9.015611  1.772089  3.594597
Cu  7.217139 -0.010676  7.226460
Cu  7.216404  1.790275  9.030351
Cu  9.015611 -0.007147  9.026212
Cu  9.015611  1.776513  7.238904
Cu  7.204360  3.600871  0.000489
Cu  7.261726  5.420179  1.763576
Cu  9.015611  3.594597  1.772089
Cu  9.015611  5.416117 -0.026481
Cu  7.281366  3.593201  3.593201
Cu  7.295008  5.427106  5.427106
Cu  9.015611  3.587669  5.426357
Cu  9.015611  5.426357  3.587669
Cu  7.268854  3.594081  7.258083
Cu  7.210197  5.414859  9.024036
Cu  9.015611  3.598193  9.050039
Cu  9.015611  5.422141  7.250142
Cu  7.217139  7.226460 -0.010676
Cu  7.216404  9.030351  1.790275
Cu  9.015611  7.238904  1.776513
Cu  9.015611  9.026212 -0.007147
Cu  7.268854  7.258083  3.594081
Cu  7.210197  9.024036  5.414859
Cu  9.015611  7.250142  5.422141
Cu  9.015611  9.050039  3.598193
Cu  7.220103  7.225555  7.225555
Cu  7.210912  9.020763  9.020763
Cu  9.015611  7.225832  9.020898
Cu  9.015611  9.020898  7.225832
%ENDBLOCK POSITIONS_ABS

