#######################################################
#CASTEP cell file: outputs/CuVac-SOCKET-2.cell
#Created using the Atomic Simulation Environment (ASE)#
#######################################################

%BLOCK LATTICE_CART
10.818734  0.000000  0.000000
 0.000000 10.818734  0.000000
 0.000000  0.000000 10.818734
%ENDBLOCK LATTICE_CART

%BLOCK POSITIONS_ABS
Cu  0.012416 -0.004437 -0.004437
Cu  0.003114  1.792929  1.792929
Cu  1.813491  0.004913  1.808887
Cu  1.813491  1.808887  0.004913
Cu  0.010847 -0.003601  3.596341
Cu -0.053685  1.757382  5.418676
Cu  1.796964  0.007444  5.405436
Cu  1.804352  1.849045  3.629221
Cu  0.001020 -0.014530  7.226117
Cu  0.001723  1.784671  9.028744
Cu  1.814856 -0.001565  9.016675
Cu  1.783904  1.793707  7.214887
Cu  0.010847  3.596341 -0.003601
Cu -0.053685  5.418676  1.757382
Cu  1.804352  3.629221  1.849045
Cu  1.796964  5.405436  0.007444
Cu -0.082767  3.588323  3.588323
Cu -0.100511  5.428477  5.428477
Cu  1.619494  3.585303  5.455610
Cu  1.619494  5.455610  3.585303
Cu -0.063882  3.589492  7.260604
Cu  0.002395  5.413604  9.024985
Cu  1.798687  3.601793  9.002581
Cu  1.773996  5.400870  7.196866
Cu  0.001020  7.226117 -0.014530
Cu  0.001723  9.028744  1.784671
Cu  1.783904  7.214887  1.793707
Cu  1.814856  9.016675 -0.001565
Cu -0.063882  7.260604  3.589492
Cu  0.002395  9.024985  5.413604
Cu  1.773996  7.196866  5.400870
Cu  1.798687  9.002581  3.601793
Cu -0.010789  7.227553  7.227553
Cu  0.010436  9.019600  9.019600
Cu  1.807156  7.209729  9.016525
Cu  1.807156  9.016525  7.209729
Cu  3.606245  0.009384  0.009384
Cu  3.606245  1.852154  1.852154
Cu  5.398998  0.004913  1.808887
Cu  5.398998  1.808887  0.004913
Cu  3.606245 -0.006295  3.608594
Cu  3.606245  1.830204  5.394344
Cu  5.415525  0.007444  5.405436
Cu  5.408137  1.849045  3.629221
Cu  3.606245  0.009021  7.201004
Cu  3.606245  1.814175  8.996301
Cu  5.397633 -0.001565  9.016675
Cu  5.428585  1.793707  7.214887
Cu  3.606245  3.608594 -0.006295
Cu  3.606245  5.394344  1.830204
Cu  5.408137  3.629221  1.849045
Cu  5.415525  5.405436  0.007444
Cu  3.606245  4.131567  4.131567
Cu  5.592995  3.585303  5.455610
Cu  5.592995  5.455610  3.585303
Cu  3.606245  3.632016  7.141618
Cu  3.606245  5.400713  9.025744
Cu  5.413802  3.601793  9.002581
Cu  5.438493  5.400870  7.196866
Cu  3.606245  7.201004  0.009021
Cu  3.606245  8.996301  1.814175
Cu  5.428585  7.214887  1.793707
Cu  5.397633  9.016675 -0.001565
Cu  3.606245  7.141618  3.632016
Cu  3.606245  9.025744  5.400713
Cu  5.438493  7.196866  5.400870
Cu  5.413802  9.002581  3.601793
Cu  3.606245  7.187932  7.187932
Cu  3.606245  9.010069  9.010069
Cu  5.405333  7.209729  9.016525
Cu  5.405333  9.016525  7.209729
Cu  7.200073 -0.004437 -0.004437
Cu  7.209375  1.792929  1.792929
Cu  9.015611 -0.005175  1.783425
Cu  9.015611  1.783425 -0.005175
Cu  7.201642 -0.003601  3.596341
Cu  7.266174  1.757382  5.418676
Cu  9.015611 -0.032902  5.416456
Cu  9.015611  1.759956  3.588454
Cu  7.211469 -0.014530  7.226117
Cu  7.210766  1.784671  9.028744
Cu  9.015611 -0.012854  9.025918
Cu  9.015611  1.766641  7.242401
Cu  7.201642  3.596341 -0.003601
Cu  7.266174  5.418676  1.757382
Cu  9.015611  3.588454  1.759956
Cu  9.015611  5.416456 -0.032902
Cu  7.295256  3.588323  3.588323
Cu  7.313000  5.428477  5.428477
Cu  9.015611  3.579795  5.428214
Cu  9.015611  5.428214  3.579795
Cu  7.276371  3.589492  7.260604
Cu  7.210094  5.413604  9.024985
Cu  9.015611  3.591870  9.053221
Cu  9.015611  5.423008  7.258396
Cu  7.211469  7.226117 -0.014530
Cu  7.210766  9.028744  1.784671
Cu  9.015611  7.242401  1.766641
Cu  9.015611  9.025918 -0.012854
Cu  7.276371  7.260604  3.589492
Cu  7.210094  9.024985  5.413604
Cu  9.015611  7.258396  5.423008
Cu  9.015611  9.053221  3.591870
Cu  7.223278  7.227553  7.227553
Cu  7.202053  9.019600  9.019600
Cu  9.015611  7.229364  9.022726
Cu  9.015611  9.022726  7.229364
%ENDBLOCK POSITIONS_ABS

