#######################################################
#CASTEP cell file: outputs/CuVac-SOCKET-4.cell
#Created using the Atomic Simulation Environment (ASE)#
#######################################################

%BLOCK LATTICE_CART
10.818734  0.000000  0.000000
 0.000000 10.818734  0.000000
 0.000000  0.000000 10.818734
%ENDBLOCK LATTICE_CART

%BLOCK POSITIONS_ABS
Cu -0.007052 -0.007052 -0.007052
Cu -0.014164  1.792796  1.792796
Cu  1.792796 -0.014164  1.792796
Cu  1.792796  1.792796 -0.014164
Cu -0.009104 -0.009104  3.606164
Cu -0.014164  1.792796  5.419864
Cu  1.792796 -0.014164  5.419864
Cu  1.791093  1.791093  3.606164
Cu -0.007052 -0.007052  7.219712
Cu -0.008280  1.796790  9.015740
Cu  1.796790 -0.008280  9.015740
Cu  1.792796  1.792796  7.226824
Cu -0.009104  3.606164 -0.009104
Cu -0.014164  5.419864  1.792796
Cu  1.791093  3.606164  1.791093
Cu  1.792796  5.419864 -0.014164
Cu -0.039083  3.606164  3.606164
Cu -0.014164  5.419864  5.419864
Cu  1.791093  3.606164  5.421231
Cu  1.791093  5.421231  3.606164
Cu -0.009104  3.606164  7.221763
Cu -0.008280  5.415869  9.015740
Cu  1.788948  3.606164  9.015740
Cu  1.792796  5.419864  7.226824
Cu -0.007052  7.219712 -0.007052
Cu -0.008280  9.015740  1.796790
Cu  1.792796  7.226824  1.792796
Cu  1.796790  9.015740 -0.008280
Cu -0.009104  7.221763  3.606164
Cu -0.008280  9.015740  5.415869
Cu  1.792796  7.226824  5.419864
Cu  1.788948  9.015740  3.606164
Cu -0.007052  7.219712  7.219712
Cu -0.005781  9.015740  9.015740
Cu  1.796790  7.220940  9.015740
Cu  1.796790  9.015740  7.220940
Cu  3.606164 -0.009104 -0.009104
Cu  3.606164  1.791093  1.791093
Cu  5.419864 -0.014164  1.792796
Cu  5.419864  1.792796 -0.014164
Cu  3.606164 -0.039083  3.606164
Cu  3.606164  1.791093  5.421231
Cu  5.419864 -0.014164  5.419864
Cu  5.421231  1.791093  3.606164
Cu  3.606164 -0.009104  7.221763
Cu  3.606164  1.788948  9.015740
Cu  5.415869 -0.008280  9.015740
Cu  5.419864  1.792796  7.226824
Cu  3.606164  3.606164 -0.039083
Cu  3.606164  5.421231  1.791093
Cu  5.421231  3.606164  1.791093
Cu  5.419864  5.419864 -0.014164
Cu  3.606164  5.421231  5.421231
Cu  5.421231  3.606164  5.421231
Cu  5.421231  5.421231  3.606164
Cu  3.606164  3.606164  7.251743
Cu  3.606164  5.423712  9.015740
Cu  5.423712  3.606164  9.015740
Cu  5.419864  5.419864  7.226824
Cu  3.606164  7.221763 -0.009104
Cu  3.606164  9.015740  1.788948
Cu  5.419864  7.226824  1.792796
Cu  5.415869  9.015740 -0.008280
Cu  3.606164  7.251743  3.606164
Cu  3.606164  9.015740  5.423712
Cu  5.419864  7.226824  5.419864
Cu  5.423712  9.015740  3.606164
Cu  3.606164  7.221763  7.221763
Cu  3.606164  9.015740  9.015740
Cu  5.415869  7.220940  9.015740
Cu  5.415869  9.015740  7.220940
Cu  7.219712 -0.007052 -0.007052
Cu  7.226824  1.792796  1.792796
Cu  9.015740 -0.008280  1.796790
Cu  9.015740  1.796790 -0.008280
Cu  7.221763 -0.009104  3.606164
Cu  7.226824  1.792796  5.419864
Cu  9.015740 -0.008280  5.415869
Cu  9.015740  1.788948  3.606164
Cu  7.219712 -0.007052  7.219712
Cu  7.220940  1.796790  9.015740
Cu  9.015740 -0.005781  9.015740
Cu  9.015740  1.796790  7.220940
Cu  7.221763  3.606164 -0.009104
Cu  7.226824  5.419864  1.792796
Cu  9.015740  3.606164  1.788948
Cu  9.015740  5.415869 -0.008280
Cu  7.251743  3.606164  3.606164
Cu  7.226824  5.419864  5.419864
Cu  9.015740  3.606164  5.423712
Cu  9.015740  5.423712  3.606164
Cu  7.221763  3.606164  7.221763
Cu  7.220940  5.415869  9.015740
Cu  9.015740  3.606164  9.015740
Cu  9.015740  5.415869  7.220940
Cu  7.219712  7.219712 -0.007052
Cu  7.220940  9.015740  1.796790
Cu  9.015740  7.220940  1.796790
Cu  9.015740  9.015740 -0.005781
Cu  7.221763  7.221763  3.606164
Cu  7.220940  9.015740  5.415869
Cu  9.015740  7.220940  5.415869
Cu  9.015740  9.015740  3.606164
Cu  7.219712  7.219712  7.219712
Cu  7.218106  9.015740  9.015740
Cu  9.015740  7.218106  9.015740
Cu  9.015740  9.015740  7.218106
%ENDBLOCK POSITIONS_ABS

