#######################################################
#CASTEP cell file: outputs/CuVac-SOCKET-4.cell
#Created using the Atomic Simulation Environment (ASE)#
#######################################################

%BLOCK LATTICE_CART
10.818734  0.000000  0.000000
 0.000000 10.818734  0.000000
 0.000000  0.000000 10.818734
%ENDBLOCK LATTICE_CART

%BLOCK POSITIONS_ABS
Cu  0.010364 -0.005113 -0.005113
Cu -0.011101  1.787238  1.787238
Cu  1.806907 -0.001627  1.804976
Cu  1.806907  1.804976 -0.001627
Cu  0.001925 -0.010233  3.601628
Cu -0.061051  1.756953  5.425377
Cu  1.798421  0.011315  5.413309
Cu  1.774452  1.818441  3.614434
Cu  0.001869 -0.013917  7.230129
Cu  0.000973  1.788889  9.029129
Cu  1.814926 -0.001982  9.016209
Cu  1.783989  1.800483  7.220818
Cu  0.001925  3.601628 -0.010233
Cu -0.061051  5.425377  1.756953
Cu  1.774452  3.614434  1.818441
Cu  1.798421  5.413309  0.011315
Cu -0.097999  3.587531  3.587531
Cu -0.081173  5.426464  5.426464
Cu  1.628375  3.564334  5.430203
Cu  1.628375  5.430203  3.564334
Cu -0.051970  3.596423  7.255958
Cu  0.009937  5.418739  9.018957
Cu  1.796873  3.609270  9.008257
Cu  1.800876  5.388097  7.171534
Cu  0.001869  7.230129 -0.013917
Cu  0.000973  9.029129  1.788889
Cu  1.783989  7.220818  1.800483
Cu  1.814926  9.016209 -0.001982
Cu -0.051970  7.255958  3.596423
Cu  0.009937  9.018957  5.418739
Cu  1.800876  7.171534  5.388097
Cu  1.796873  9.008257  3.609270
Cu  0.002640  7.222267  7.222267
Cu  0.012753  9.018914  9.018914
Cu  1.813644  7.206450  9.010319
Cu  1.813644  9.010319  7.206450
Cu  3.606245  0.004757  0.004757
Cu  3.606245  1.827476  1.827476
Cu  5.405582 -0.001627  1.804976
Cu  5.405582  1.804976 -0.001627
Cu  3.606245 -0.011177  3.613960
Cu  3.606245  1.867595  5.384007
Cu  5.414068  0.011315  5.413309
Cu  5.438037  1.818441  3.614434
Cu  3.606245  0.017938  7.201198
Cu  3.606245  1.813413  9.006369
Cu  5.397563 -0.001982  9.016209
Cu  5.428500  1.800483  7.220818
Cu  3.606245  3.613960 -0.011177
Cu  3.606245  5.384007  1.867595
Cu  5.438037  3.614434  1.818441
Cu  5.414068  5.413309  0.011315
Cu  3.606245  4.875796  4.875796
Cu  5.584114  3.564334  5.430203
Cu  5.584114  5.430203  3.564334
Cu  3.606245  3.620058  7.185375
Cu  3.606245  5.406298  9.020701
Cu  5.415616  3.609270  9.008256
Cu  5.411613  5.388097  7.171534
Cu  3.606245  7.201198  0.017938
Cu  3.606245  9.006369  1.813413
Cu  5.428500  7.220818  1.800483
Cu  5.397563  9.016209 -0.001982
Cu  3.606245  7.185375  3.620058
Cu  3.606245  9.020701  5.406298
Cu  5.411613  7.171534  5.388097
Cu  5.415616  9.008256  3.609270
Cu  3.606245  7.164906  7.164906
Cu  3.606245  9.005603  9.005603
Cu  5.398845  7.206450  9.010319
Cu  5.398845  9.010319  7.206450
Cu  7.202125 -0.005113 -0.005113
Cu  7.223590  1.787238  1.787238
Cu  9.015611 -0.008331  1.785465
Cu  9.015611  1.785465 -0.008331
Cu  7.210564 -0.010233  3.601628
Cu  7.273540  1.756953  5.425377
Cu  9.015611 -0.037376  5.423407
Cu  9.015611  1.756995  3.592377
Cu  7.210620 -0.013917  7.230129
Cu  7.211516  1.788889  9.029129
Cu  9.015612 -0.011401  9.027378
Cu  9.015611  1.772817  7.247879
Cu  7.210564  3.601628 -0.010233
Cu  7.273540  5.425377  1.756953
Cu  9.015611  3.592377  1.756995
Cu  9.015611  5.423407 -0.037376
Cu  7.310488  3.587531  3.587531
Cu  7.293662  5.426464  5.426464
Cu  9.015611  3.587232  5.435109
Cu  9.015611  5.435109  3.587232
Cu  7.264459  3.596423  7.255958
Cu  7.202552  5.418739  9.018957
Cu  9.015611  3.598864  9.046576
Cu  9.015611  5.426479  7.254354
Cu  7.210620  7.230129 -0.013917
Cu  7.211516  9.029129  1.788889
Cu  9.015611  7.247879  1.772817
Cu  9.015612  9.027378 -0.011401
Cu  7.264459  7.255958  3.596423
Cu  7.202552  9.018957  5.418739
Cu  9.015611  7.254354  5.426479
Cu  9.015611  9.046576  3.598864
Cu  7.209849  7.222267  7.222267
Cu  7.199736  9.018914  9.018914
Cu  9.015612  7.231425  9.019692
Cu  9.015612  9.019692  7.231425
%ENDBLOCK POSITIONS_ABS

