#######################################################
#CASTEP cell file: outputs/CuVac-CASTEP-4.cell
#Created using the Atomic Simulation Environment (ASE)#
#######################################################

%BLOCK LATTICE_CART
10.818734  0.000000  0.000000
 0.000000 10.818734  0.000000
 0.000000  0.000000 10.818734
%ENDBLOCK LATTICE_CART

%BLOCK POSITIONS_ABS
Cu  0.000471 -0.003175 -0.003175
Cu -0.006028  1.792893  1.792893
Cu  1.801971 -0.004038  1.801943
Cu  1.801971  1.801943 -0.004038
Cu  0.002757 -0.006086  3.601402
Cu -0.054590  1.759533  5.422636
Cu  1.796857  0.006094  5.413799
Cu  1.789875  1.819300  3.616788
Cu -0.005391 -0.012513  7.225848
Cu -0.005438  1.790113  9.027185
Cu  1.803505 -0.004095  9.019452
Cu  1.783612  1.790579  7.226822
Cu  0.002757  3.601402 -0.006086
Cu -0.054590  5.422636  1.759533
Cu  1.789875  3.616788  1.819300
Cu  1.796857  5.413799  0.006094
Cu -0.078898  3.591776  3.591776
Cu -0.067976  5.425694  5.425694
Cu  1.634178  3.558352  5.444597
Cu  1.634178  5.444597  3.558352
Cu -0.049794  3.596994  7.254280
Cu  0.005996  5.415720  9.017614
Cu  1.795071  3.605517  9.007369
Cu  1.807879  5.395739  7.178881
Cu -0.005391  7.225848 -0.012513
Cu -0.005438  9.027185  1.790113
Cu  1.783612  7.226822  1.790579
Cu  1.803505  9.019452 -0.004095
Cu -0.049794  7.254280  3.596994
Cu  0.005996  9.017614  5.415720
Cu  1.807879  7.178881  5.395739
Cu  1.795071  9.007369  3.605517
Cu -0.001202  7.221046  7.221046
Cu  0.000150  9.018687  9.018687
Cu  1.803179  7.213373  9.016006
Cu  1.803179  9.016006  7.213373
Cu  3.606256  0.001353  0.001353
Cu  3.606214  1.815525  1.815525
Cu  5.410608 -0.004029  1.801944
Cu  5.410608  1.801944 -0.004029
Cu  3.606238 -0.017845  3.609732
Cu  3.606211  1.852413  5.398345
Cu  5.415722  0.006101  5.413794
Cu  5.422596  1.819293  3.616784
Cu  3.606257  0.008289  7.210179
Cu  3.606257  1.804228  9.007987
Cu  5.409088 -0.004081  9.019457
Cu  5.428965  1.790579  7.226817
Cu  3.606238  3.609732 -0.017845
Cu  3.606211  5.398345  1.852413
Cu  5.422596  3.616784  1.819293
Cu  5.415722  5.413794  0.006101
Cu  3.606175  4.824853  4.824853
Cu  5.578281  3.558359  5.444601
Cu  5.578281  5.444601  3.558359
Cu  3.606243  3.617566  7.190848
Cu  3.606257  5.411042  9.025866
Cu  5.417521  3.605513  9.007377
Cu  5.404723  5.395746  7.178906
Cu  3.606257  7.210179  0.008289
Cu  3.606257  9.007987  1.804228
Cu  5.428965  7.226817  1.790579
Cu  5.409088  9.019457 -0.004081
Cu  3.606243  7.190848  3.617566
Cu  3.606257  9.025866  5.411042
Cu  5.404723  7.178906  5.395746
Cu  5.417521  9.007377  3.605513
Cu  3.606264  7.190293  7.190293
Cu  3.606270  9.013981  9.013981
Cu  5.409419  7.213365  9.016016
Cu  5.409419  9.016016  7.213365
Cu  7.212217 -0.003167 -0.003167
Cu  7.218683  1.792910  1.792910
Cu  9.015732 -0.002916  1.791529
Cu  9.015732  1.791529 -0.002916
Cu  7.209911 -0.006062  3.601400
Cu  7.267229  1.759577  5.422619
Cu  9.015724 -0.030738  5.416851
Cu  9.015726  1.769550  3.595089
Cu  7.218073 -0.012502  7.225842
Cu  7.218122  1.790122  9.027186
Cu  9.015727 -0.008496  9.023791
Cu  9.015729  1.778721  7.238655
Cu  7.209911  3.601400 -0.006062
Cu  7.267229  5.422619  1.759577
Cu  9.015726  3.595089  1.769550
Cu  9.015724  5.416851 -0.030738
Cu  7.291508  3.591785  3.591785
Cu  7.280624  5.425669  5.425669
Cu  9.015734  3.591228  5.428782
Cu  9.015734  5.428782  3.591228
Cu  7.262450  3.596989  7.254241
Cu  7.206689  5.415710  9.017622
Cu  9.015724  3.599645  9.044263
Cu  9.015723  5.421934  7.244777
Cu  7.218073  7.225842 -0.012502
Cu  7.218122  9.027186  1.790122
Cu  9.015729  7.238655  1.778721
Cu  9.015727  9.023791 -0.008496
Cu  7.262450  7.254241  3.596989
Cu  7.206689  9.017622  5.415710
Cu  9.015723  7.244777  5.421934
Cu  9.015724  9.044263  3.599645
Cu  7.213887  7.221047  7.221047
Cu  7.212474  9.018691  9.018691
Cu  9.015724  7.223834  9.017457
Cu  9.015724  9.017457  7.223834
%ENDBLOCK POSITIONS_ABS

