#######################################################
#CASTEP cell file: outputs/CuVac-CASTEP-1.cell
#Created using the Atomic Simulation Environment (ASE)#
#######################################################

%BLOCK LATTICE_CART
10.818734  0.000000  0.000000
 0.000000 10.818734  0.000000
 0.000000  0.000000 10.818734
%ENDBLOCK LATTICE_CART

%BLOCK POSITIONS_ABS
Cu  0.005437  0.009003  0.009003
Cu  0.012853  1.809537  1.809537
Cu  1.814187  0.016380  1.816115
Cu  1.814187  1.816115  0.016380
Cu  0.011945  0.010321  3.603220
Cu -0.034122  1.779858  5.420418
Cu  1.795154  0.007400  5.412400
Cu  1.813763  1.844411  3.636300
Cu -0.006213 -0.005358  7.227215
Cu -0.003545  1.794092  9.036363
Cu  1.804162  0.005921  9.029380
Cu  1.781030  1.792475  7.224835
Cu  0.011945  3.603220  0.010321
Cu -0.034122  5.420418  1.779858
Cu  1.813763  3.636300  1.844411
Cu  1.795154  5.412400  0.007400
Cu -0.049918  3.602522  3.602522
Cu -0.082062  5.430980  5.430980
Cu  1.691076  3.607047  5.452804
Cu  1.691076  5.452804  3.607047
Cu -0.050147  3.596274  7.253513
Cu -0.003158  5.414487  9.032707
Cu  1.796723  3.602291  9.015154
Cu  1.775913  5.416618  7.221517
Cu -0.006213  7.227215 -0.005358
Cu -0.003545  9.036363  1.794092
Cu  1.781030  7.224835  1.792475
Cu  1.804162  9.029380  0.005921
Cu -0.050147  7.253513  3.596274
Cu -0.003158  9.032707  5.414487
Cu  1.775913  7.221517  5.416618
Cu  1.796723  9.015154  3.602291
Cu -0.015216  7.233322  7.233322
Cu -0.001207  9.027357  9.027357
Cu  1.797817  7.224131  9.030104
Cu  1.797817  9.030104  7.224131
Cu  3.606284  0.020139  0.020139
Cu  3.606274  1.862145  1.862145
Cu  5.398386  0.016378  1.816105
Cu  5.398386  1.816105  0.016378
Cu  3.606283  0.003032  3.612285
Cu  3.606269  1.802400  5.425957
Cu  5.417411  0.007403  5.412405
Cu  5.398779  1.844412  3.636296
Cu  3.606283  0.004907  7.220731
Cu  3.606282  1.809751  9.009692
Cu  5.408421  0.005918  9.029386
Cu  5.431527  1.792470  7.224839
Cu  3.606283  3.612285  0.003032
Cu  3.606269  5.425957  1.802400
Cu  5.398779  3.636296  1.844412
Cu  5.417411  5.412405  0.007403
Cu  3.606243  3.828541  3.828541
Cu  5.521430  3.607049  5.452796
Cu  5.521430  5.452796  3.607049
Cu  3.606270  3.621368  7.181284
Cu  3.606286  5.410660  9.041479
Cu  5.415843  3.602284  9.015155
Cu  5.436646  5.416621  7.221526
Cu  3.606283  7.220731  0.004907
Cu  3.606282  9.009692  1.809751
Cu  5.431527  7.224839  1.792470
Cu  5.408421  9.029386  0.005918
Cu  3.606270  7.181284  3.621368
Cu  3.606286  9.041479  5.410660
Cu  5.436646  7.221526  5.416621
Cu  5.415843  9.015155  3.602284
Cu  3.606285  7.216718  7.216718
Cu  3.606286  9.027031  9.027031
Cu  5.414762  7.224144  9.030111
Cu  5.414762  9.030111  7.224144
Cu  7.207176  0.008998  0.008998
Cu  7.199718  1.809533  1.809533
Cu  9.015665  0.012295  1.798952
Cu  9.015665  1.798952  0.012295
Cu  7.200619  0.010325  3.603216
Cu  7.246672  1.779865  5.420419
Cu  9.015648 -0.012434  5.414021
Cu  9.015644  1.784068  3.598808
Cu  7.218803 -0.005356  7.227224
Cu  7.216134  1.794083  9.036363
Cu  9.015681 -0.001282  9.031785
Cu  9.015655  1.780483  7.238174
Cu  7.200619  3.603216  0.010325
Cu  7.246672  5.420419  1.779865
Cu  9.015644  3.598808  1.784068
Cu  9.015648  5.414021 -0.012434
Cu  7.262456  3.602524  3.602524
Cu  7.294597  5.430975  5.430975
Cu  9.015642  3.590412  5.425648
Cu  9.015642  5.425648  3.590412
Cu  7.262696  3.596269  7.253505
Cu  7.215724  5.414490  9.032710
Cu  9.015646  3.597765  9.055116
Cu  9.015640  5.422972  7.255167
Cu  7.218803  7.227224 -0.005356
Cu  7.216134  9.036363  1.794083
Cu  9.015655  7.238174  1.780483
Cu  9.015681  9.031785 -0.001282
Cu  7.262696  7.253505  3.596269
Cu  7.215724  9.032710  5.414490
Cu  9.015640  7.255167  5.422972
Cu  9.015646  9.055116  3.597765
Cu  7.227788  7.233330  7.233330
Cu  7.213821  9.027365  9.027365
Cu  9.015665  7.227831  9.028218
Cu  9.015665  9.028218  7.227831
%ENDBLOCK POSITIONS_ABS

