#######################################################
#CASTEP cell file: outputs/CuVac-SOCKET-3.cell
#Created using the Atomic Simulation Environment (ASE)#
#######################################################

%BLOCK LATTICE_CART
10.818734  0.000000  0.000000
 0.000000 10.818734  0.000000
 0.000000  0.000000 10.818734
%ENDBLOCK LATTICE_CART

%BLOCK POSITIONS_ABS
Cu  0.011269 -0.004322 -0.004322
Cu -0.004805  1.790132  1.790132
Cu  1.809585  0.001586  1.807263
Cu  1.809585  1.807263  0.001586
Cu  0.005833 -0.006884  3.599048
Cu -0.061164  1.753931  5.422951
Cu  1.797646  0.010499  5.409879
Cu  1.787149  1.834232  3.622356
Cu  0.001128 -0.013653  7.229123
Cu  0.001126  1.786768  9.029595
Cu  1.815029 -0.001121  9.017137
Cu  1.784731  1.797071  7.218823
Cu  0.005833  3.599048 -0.006884
Cu -0.061164  5.422951  1.753931
Cu  1.787149  3.622356  1.834232
Cu  1.797646  5.409879  0.010499
Cu -0.092972  3.587556  3.587556
Cu -0.093306  5.428408  5.428408
Cu  1.603483  3.566919  5.449572
Cu  1.603483  5.449572  3.566919
Cu -0.061349  3.592880  7.262078
Cu  0.005710  5.416840  9.022946
Cu  1.797674  3.605957  9.005447
Cu  1.786599  5.393846  7.182374
Cu  0.001128  7.229123 -0.013653
Cu  0.001126  9.029595  1.786768
Cu  1.784731  7.218823  1.797071
Cu  1.815029  9.017137 -0.001121
Cu -0.061349  7.262078  3.592880
Cu  0.005710  9.022946  5.416840
Cu  1.786599  7.182374  5.393846
Cu  1.797674  9.005447  3.605957
Cu -0.004966  7.225906  7.225906
Cu  0.011278  9.020256  9.020256
Cu  1.809558  7.208776  9.014567
Cu  1.809558  9.014567  7.208776
Cu  3.606245  0.007303  0.007303
Cu  3.606245  1.836982  1.836982
Cu  5.402904  0.001586  1.807263
Cu  5.402904  1.807263  0.001586
Cu  3.606245 -0.008145  3.611942
Cu  3.606245  1.858912  5.383772
Cu  5.414843  0.010499  5.409879
Cu  5.425340  1.834232  3.622356
Cu  3.606245  0.015096  7.200494
Cu  3.606245  1.815636  9.001060
Cu  5.397460 -0.001121  9.017137
Cu  5.427758  1.797071  7.218823
Cu  3.606245  3.611942 -0.008145
Cu  3.606245  5.383772  1.858912
Cu  5.425340  3.622356  1.834232
Cu  5.414843  5.409879  0.010499
Cu  3.606245  4.498907  4.498907
Cu  5.609006  3.566919  5.449572
Cu  5.609006  5.449572  3.566919
Cu  3.606245  3.632262  7.156114
Cu  3.606245  5.403918  9.024335
Cu  5.414815  3.605957  9.005447
Cu  5.425890  5.393846  7.182374
Cu  3.606245  7.200494  0.015096
Cu  3.606245  9.001060  1.815636
Cu  5.427758  7.218823  1.797071
Cu  5.397460  9.017137 -0.001121
Cu  3.606245  7.156114  3.632262
Cu  3.606245  9.024335  5.403918
Cu  5.425890  7.182374  5.393846
Cu  5.414815  9.005447  3.605957
Cu  3.606245  7.179480  7.179480
Cu  3.606245  9.008792  9.008792
Cu  5.402931  7.208776  9.014567
Cu  5.402931  9.014567  7.208776
Cu  7.201220 -0.004322 -0.004322
Cu  7.217294  1.790132  1.790132
Cu  9.015612 -0.006264  1.784699
Cu  9.015612  1.784699 -0.006264
Cu  7.206656 -0.006884  3.599048
Cu  7.273653  1.753931  5.422951
Cu  9.015612 -0.035537  5.420370
Cu  9.015612  1.758687  3.590543
Cu  7.211361 -0.013653  7.229123
Cu  7.211363  1.786768  9.029595
Cu  9.015612 -0.011504  9.027391
Cu  9.015612  1.769705  7.246140
Cu  7.206656  3.599048 -0.006884
Cu  7.273653  5.422951  1.753931
Cu  9.015612  3.590543  1.758687
Cu  9.015612  5.420370 -0.035537
Cu  7.305461  3.587556  3.587556
Cu  7.305795  5.428408  5.428408
Cu  9.015612  3.583511  5.432303
Cu  9.015612  5.432303  3.583511
Cu  7.273838  3.592880  7.262078
Cu  7.206779  5.416840  9.022946
Cu  9.015612  3.595494  9.051548
Cu  9.015612  5.425357  7.257302
Cu  7.211361  7.229123 -0.013653
Cu  7.211363  9.029595  1.786768
Cu  9.015612  7.246140  1.769705
Cu  9.015612  9.027391 -0.011504
Cu  7.273838  7.262078  3.592880
Cu  7.206779  9.022946  5.416840
Cu  9.015612  7.257302  5.425357
Cu  9.015612  9.051548  3.595494
Cu  7.217455  7.225906  7.225906
Cu  7.201211  9.020256  9.020256
Cu  9.015612  7.231208  9.022215
Cu  9.015612  9.022215  7.231208
%ENDBLOCK POSITIONS_ABS

