#######################################################
#CASTEP cell file: outputs/CuVac-ASE-3.cell
#Created using the Atomic Simulation Environment (ASE)#
#######################################################

%BLOCK LATTICE_CART
10.818734  0.000000  0.000000
 0.000000 10.818734  0.000000
 0.000000  0.000000 10.818734
%ENDBLOCK LATTICE_CART

%BLOCK POSITIONS_ABS
Cu  0.005104 -0.003204 -0.003204
Cu -0.003104  1.792663  1.792663
Cu  1.806219 -0.000226  1.804819
Cu  1.806219  1.804819 -0.000226
Cu  0.005857 -0.005192  3.600002
Cu -0.058459  1.755678  5.421825
Cu  1.797234  0.009151  5.411117
Cu  1.794021  1.832417  3.621535
Cu -0.002671 -0.013436  7.227180
Cu -0.002671  1.788431  9.029048
Cu  1.808312 -0.002934  9.018546
Cu  1.783325  1.792454  7.223157
Cu  0.005857  3.600002 -0.005192
Cu -0.058459  5.421825  1.755678
Cu  1.794021  3.621535  1.832417
Cu  1.797234  5.411117  0.009151
Cu -0.083907  3.589078  3.589078
Cu -0.083907  5.426534  5.426534
Cu  1.611288  3.562473  5.453139
Cu  1.611288  5.453139  3.562473
Cu -0.058459  3.593787  7.259934
Cu  0.005857  5.415609  9.020804
Cu  1.797234  3.604495  9.006461
Cu  1.794021  5.394076  7.183194
Cu -0.002671  7.227180 -0.013436
Cu -0.002671  9.029048  1.788431
Cu  1.783325  7.223157  1.792454
Cu  1.808312  9.018546 -0.002934
Cu -0.058459  7.259934  3.593787
Cu  0.005857  9.020804  5.415609
Cu  1.794021  7.183194  5.394076
Cu  1.797234  9.006461  3.604495
Cu -0.003104  7.222948  7.222948
Cu  0.005104  9.018815  9.018815
Cu  1.806219  7.210792  9.015837
Cu  1.806219  9.015837  7.210792
Cu  3.606245  0.004119  0.004119
Cu  3.606245  1.828087  1.828087
Cu  5.406270 -0.000226  1.804819
Cu  5.406270  1.804819 -0.000226
Cu  3.606245 -0.011093  3.609895
Cu  3.606245  1.851635  5.390840
Cu  5.415255  0.009151  5.411117
Cu  5.418468  1.832417  3.621535
Cu  3.606245  0.011391  7.205855
Cu  3.606245  1.809757  9.004220
Cu  5.404177 -0.002934  9.018546
Cu  5.429164  1.792454  7.223157
Cu  3.606245  3.609895 -0.011093
Cu  3.606245  5.390840  1.851635
Cu  5.418468  3.621535  1.832417
Cu  5.415255  5.411117  0.009151
Cu  3.606245  4.507806  4.507806
Cu  5.601201  3.562473  5.453139
Cu  5.601201  5.453139  3.562473
Cu  3.606245  3.624772  7.163977
Cu  3.606245  5.405716  9.026705
Cu  5.415255  3.604495  9.006461
Cu  5.418468  5.394076  7.183194
Cu  3.606245  7.205855  0.011391
Cu  3.606245  9.004220  1.809757
Cu  5.429164  7.223157  1.792454
Cu  5.404177  9.018546 -0.002934
Cu  3.606245  7.163977  3.624772
Cu  3.606245  9.026705  5.405716
Cu  5.418468  7.183194  5.394076
Cu  5.415255  9.006461  3.604495
Cu  3.606245  7.187525  7.187525
Cu  3.606245  9.011493  9.011493
Cu  5.406270  7.210792  9.015837
Cu  5.406270  9.015837  7.210792
Cu  7.207385 -0.003204 -0.003204
Cu  7.215593  1.792663  1.792663
Cu  9.015612 -0.003223  1.788974
Cu  9.015612  1.788974 -0.003223
Cu  7.206632 -0.005192  3.600002
Cu  7.270948  1.755678  5.421825
Cu  9.015612 -0.033722  5.417988
Cu  9.015612  1.764486  3.592398
Cu  7.215160 -0.013436  7.227180
Cu  7.215160  1.788431  9.029048
Cu  9.015612 -0.009933  9.025545
Cu  9.015612  1.773528  7.242084
Cu  7.206632  3.600002 -0.005192
Cu  7.270948  5.421825  1.755678
Cu  9.015612  3.592398  1.764486
Cu  9.015612  5.417988 -0.033722
Cu  7.296396  3.589078  3.589078
Cu  7.296396  5.426534  5.426534
Cu  9.015612  3.586339  5.429273
Cu  9.015612  5.429273  3.586339
Cu  7.270948  3.593787  7.259934
Cu  7.206632  5.415609  9.020804
Cu  9.015612  3.597623  9.049333
Cu  9.015612  5.423213  7.251126
Cu  7.215160  7.227180 -0.013436
Cu  7.215160  9.029048  1.788431
Cu  9.015612  7.242084  1.773528
Cu  9.015612  9.025545 -0.009933
Cu  7.270948  7.259934  3.593787
Cu  7.206632  9.020804  5.415609
Cu  9.015612  7.251126  5.423213
Cu  9.015612  9.049333  3.597623
Cu  7.215593  7.222948  7.222948
Cu  7.207385  9.018815  9.018815
Cu  9.015612  7.226637  9.018834
Cu  9.015612  9.018834  7.226637
%ENDBLOCK POSITIONS_ABS

