#######################################################
#CASTEP cell file: outputs/CuVac-ASE-3.cell
#Created using the Atomic Simulation Environment (ASE)#
#######################################################

%BLOCK LATTICE_CART
10.818734  0.000000  0.000000
 0.000000 10.818734  0.000000
 0.000000  0.000000 10.818734
%ENDBLOCK LATTICE_CART

%BLOCK POSITIONS_ABS
Cu  0.002596 -0.002864 -0.002864
Cu -0.002835  1.793681  1.793681
Cu  1.804596 -0.000893  1.803910
Cu  1.804596  1.803910 -0.000893
Cu  0.005645 -0.004408  3.600429
Cu -0.057113  1.756696  5.421465
Cu  1.796802  0.008568  5.411623
Cu  1.796609  1.831600  3.621063
Cu -0.004212 -0.013166  7.226472
Cu -0.004212  1.789139  9.028778
Cu  1.805826 -0.003615  9.019227
Cu  1.783087  1.790612  7.224999
Cu  0.005645  3.600429 -0.004408
Cu -0.057113  5.421465  1.756696
Cu  1.796609  3.621063  1.831600
Cu  1.796802  5.411623  0.008568
Cu -0.079702  3.589852  3.589852
Cu -0.079702  5.425759  5.425759
Cu  1.614919  3.560634  5.454978
Cu  1.614919  5.454978  3.560634
Cu -0.057113  3.594146  7.258915
Cu  0.005645  5.415183  9.020019
Cu  1.796802  3.603988  9.007043
Cu  1.796609  5.394549  7.184012
Cu -0.004212  7.226472 -0.013166
Cu -0.004212  9.028778  1.789139
Cu  1.783087  7.224999  1.790612
Cu  1.805826  9.019227 -0.003615
Cu -0.057113  7.258915  3.594146
Cu  0.005645  9.020019  5.415183
Cu  1.796609  7.184012  5.394549
Cu  1.796802  9.007043  3.603988
Cu -0.002835  7.221931  7.221931
Cu  0.002596  9.018476  9.018476
Cu  1.804596  7.211702  9.016505
Cu  1.804596  9.016505  7.211702
Cu  3.606245  0.003090  0.003090
Cu  3.606245  1.824675  1.824675
Cu  5.407893 -0.000893  1.803910
Cu  5.407893  1.803910 -0.000893
Cu  3.606245 -0.012304  3.609009
Cu  3.606245  1.848352  5.393492
Cu  5.415687  0.008568  5.411623
Cu  5.415880  1.831600  3.621063
Cu  3.606245  0.009897  7.207951
Cu  3.606245  1.807661  9.005715
Cu  5.406663 -0.003615  9.019227
Cu  5.429402  1.790612  7.224999
Cu  3.606245  3.609009 -0.012304
Cu  3.606245  5.393492  1.848352
Cu  5.415880  3.621063  1.831600
Cu  5.415687  5.411623  0.008568
Cu  3.606244  4.507806  4.507806
Cu  5.597570  3.560634  5.454978
Cu  5.597570  5.454978  3.560634
Cu  3.606245  3.622120  7.167260
Cu  3.606245  5.406602  9.027916
Cu  5.415687  3.603988  9.007043
Cu  5.415880  5.394549  7.184012
Cu  3.606245  7.207951  0.009897
Cu  3.606245  9.005715  1.807661
Cu  5.429402  7.224999  1.790612
Cu  5.406663  9.019227 -0.003615
Cu  3.606245  7.167260  3.622120
Cu  3.606245  9.027916  5.406602
Cu  5.415880  7.184012  5.394549
Cu  5.415687  9.007043  3.603988
Cu  3.606245  7.190936  7.190936
Cu  3.606245  9.012521  9.012521
Cu  5.407893  7.211702  9.016505
Cu  5.407893  9.016505  7.211702
Cu  7.209893 -0.002864 -0.002864
Cu  7.215324  1.793681  1.793681
Cu  9.015611 -0.002213  1.790671
Cu  9.015611  1.790671 -0.002213
Cu  7.206844 -0.004408  3.600429
Cu  7.269602  1.756696  5.421465
Cu  9.015611 -0.032675  5.417150
Cu  9.015612  1.767192  3.593282
Cu  7.216701 -0.013166  7.226472
Cu  7.216701  1.789139  9.028778
Cu  9.015612 -0.009221  9.024832
Cu  9.015612  1.775310  7.240301
Cu  7.206844  3.600429 -0.004408
Cu  7.269602  5.421465  1.756696
Cu  9.015612  3.593282  1.767192
Cu  9.015611  5.417150 -0.032675
Cu  7.292190  3.589852  3.589852
Cu  7.292191  5.425759  5.425759
Cu  9.015611  3.587631  5.427981
Cu  9.015611  5.427981  3.587631
Cu  7.269602  3.594146  7.258915
Cu  7.206844  5.415183  9.020019
Cu  9.015611  3.598462  9.048287
Cu  9.015612  5.422329  7.248420
Cu  7.216701  7.226472 -0.013166
Cu  7.216701  9.028778  1.789139
Cu  9.015612  7.240301  1.775310
Cu  9.015612  9.024832 -0.009221
Cu  7.269602  7.258915  3.594146
Cu  7.206844  9.020019  5.415183
Cu  9.015612  7.248420  5.422329
Cu  9.015611  9.048287  3.598462
Cu  7.215324  7.221931  7.221931
Cu  7.209893  9.018476  9.018476
Cu  9.015611  7.224940  9.017824
Cu  9.015611  9.017824  7.224940
%ENDBLOCK POSITIONS_ABS

