#######################################################
#CASTEP cell file: outputs/CuVac-CASTEP-2.cell
#Created using the Atomic Simulation Environment (ASE)#
#######################################################

%BLOCK LATTICE_CART
10.818734  0.000000  0.000000
 0.000000 10.818734  0.000000
 0.000000  0.000000 10.818734
%ENDBLOCK LATTICE_CART

%BLOCK POSITIONS_ABS
Cu  0.000084 -0.003044 -0.003044
Cu -0.001334  1.794600  1.794600
Cu  1.803119 -0.000330  1.802281
Cu  1.803119  1.802281 -0.000330
Cu  0.005870 -0.001970  3.599905
Cu -0.049912  1.761372  5.418586
Cu  1.795050  0.008314  5.410045
Cu  1.807780  1.836727  3.619834
Cu -0.005516 -0.011528  7.225480
Cu -0.005470  1.789823  9.028132
Cu  1.803481 -0.003782  9.019740
Cu  1.783581  1.788822  7.225027
Cu  0.005870  3.599905 -0.001970
Cu -0.049912  5.418586  1.761372
Cu  1.807780  3.619834  1.836727
Cu  1.795050  5.410045  0.008314
Cu -0.068092  3.589919  3.589919
Cu -0.078909  5.423769  5.423769
Cu  1.634182  3.570912  5.457165
Cu  1.634182  5.457165  3.570912
Cu -0.054646  3.592992  7.256037
Cu  0.002711  5.414178  9.021688
Cu  1.796838  3.601814  9.009551
Cu  1.789942  5.398716  7.196224
Cu -0.005516  7.225480 -0.011528
Cu -0.005470  9.028132  1.789823
Cu  1.783581  7.225027  1.788822
Cu  1.803481  9.019740 -0.003782
Cu -0.054646  7.256037  3.592992
Cu  0.002711  9.021688  5.414178
Cu  1.789942  7.196224  5.398716
Cu  1.796838  9.009551  3.601814
Cu -0.006047  7.222672  7.222672
Cu  0.000427  9.018779  9.018779
Cu  1.801984  7.213630  9.019665
Cu  1.801984  9.019665  7.213630
Cu  3.606269  0.001715  0.001715
Cu  3.606281  1.825398  1.825398
Cu  5.409417 -0.000337  1.802274
Cu  5.409417  1.802274 -0.000337
Cu  3.606275 -0.010184  3.604563
Cu  3.606276  1.824829  5.397917
Cu  5.417482  0.008310  5.410049
Cu  5.404772  1.836720  3.619830
Cu  3.606270  0.007708  7.211343
Cu  3.606270  1.805481  9.007372
Cu  5.409050 -0.003787  9.019740
Cu  5.428948  1.788824  7.225027
Cu  3.606275  3.604563 -0.010184
Cu  3.606276  5.397917  1.824829
Cu  5.404772  3.619830  1.836720
Cu  5.417482  5.410049  0.008310
Cu  3.606261  4.191034  4.191034
Cu  5.578357  3.570909  5.457167
Cu  5.578357  5.457167  3.570909
Cu  3.606269  3.617167  7.163138
Cu  3.606271  5.405799  9.033451
Cu  5.415690  3.601813  9.009551
Cu  5.422579  5.398716  7.196221
Cu  3.606270  7.211343  0.007708
Cu  3.606270  9.007372  1.805481
Cu  5.428948  7.225027  1.788824
Cu  5.409050  9.019740 -0.003787
Cu  3.606269  7.163138  3.617167
Cu  3.606271  9.033451  5.405799
Cu  5.422579  7.196221  5.398716
Cu  5.415690  9.009551  3.601813
Cu  3.606268  7.200024  7.200024
Cu  3.606266  9.014286  9.014286
Cu  5.410546  7.213635  9.019664
Cu  5.410546  9.019664  7.213635
Cu  7.212437 -0.003049 -0.003049
Cu  7.213848  1.794590  1.794590
Cu  9.015621 -0.001833  1.791779
Cu  9.015621  1.791779 -0.001833
Cu  7.206638 -0.001976  3.599904
Cu  7.262415  1.761373  5.418592
Cu  9.015616 -0.028632  5.415959
Cu  9.015615  1.770847  3.593677
Cu  7.218028 -0.011531  7.225484
Cu  7.217983  1.789819  9.028132
Cu  9.015627 -0.008154  9.024081
Cu  9.015619  1.777005  7.236891
Cu  7.206638  3.599904 -0.001976
Cu  7.262415  5.418592  1.761373
Cu  9.015615  3.593677  1.770847
Cu  9.015616  5.415959 -0.028632
Cu  7.280600  3.589919  3.589919
Cu  7.291409  5.423771  5.423771
Cu  9.015614  3.586852  5.424354
Cu  9.015614  5.424354  3.586852
Cu  7.267144  3.592990  7.256034
Cu  7.209793  5.414182  9.021685
Cu  9.015616  3.598787  9.046359
Cu  9.015616  5.420493  7.246019
Cu  7.218028  7.225484 -0.011531
Cu  7.217983  9.028132  1.789819
Cu  9.015619  7.236891  1.777005
Cu  9.015627  9.024081 -0.008154
Cu  7.267144  7.256034  3.592990
Cu  7.209793  9.021685  5.414182
Cu  9.015616  7.246019  5.420493
Cu  9.015616  9.046359  3.598787
Cu  7.218553  7.222675  7.222675
Cu  7.212102  9.018781  9.018781
Cu  9.015621  7.224062  9.018523
Cu  9.015621  9.018523  7.224062
%ENDBLOCK POSITIONS_ABS

