#######################################################
#CASTEP cell file: outputs/CuVac-SOCKET-0.cell
#Created using the Atomic Simulation Environment (ASE)#
#######################################################

%BLOCK LATTICE_CART
10.818734  0.000000  0.000000
 0.000000 10.818734  0.000000
 0.000000  0.000000 10.818734
%ENDBLOCK LATTICE_CART

%BLOCK POSITIONS_ABS
Cu -0.007000 -0.007000 -0.007000
Cu -0.013999  1.793000  1.793000
Cu  1.793000 -0.013999  1.793000
Cu  1.793000  1.793000 -0.013999
Cu -0.009001 -0.009001  3.606003
Cu -0.013999  1.793000  5.420002
Cu  1.793000 -0.013999  5.420002
Cu  1.790998  1.790998  3.606003
Cu -0.007000 -0.007000  7.220001
Cu -0.007995  1.797002  9.015997
Cu  1.797002 -0.007995  9.015997
Cu  1.793000  1.793000  7.227001
Cu -0.009001  3.606003 -0.009001
Cu -0.013999  5.420002  1.793000
Cu  1.790998  3.606003  1.790998
Cu  1.793000  5.420002 -0.013999
Cu -0.039002  3.606003  3.606003
Cu -0.013999  5.420002  5.420002
Cu  1.790998  3.606003  5.420997
Cu  1.790998  5.420997  3.606003
Cu -0.009001  3.606003  7.222002
Cu -0.007995  5.415999  9.015997
Cu  1.788997  3.606003  9.015997
Cu  1.793000  5.420002  7.227001
Cu -0.007000  7.220001 -0.007000
Cu -0.007995  9.015997  1.797002
Cu  1.793000  7.227001  1.793000
Cu  1.797002  9.015997 -0.007995
Cu -0.009001  7.222002  3.606003
Cu -0.007995  9.015997  5.415999
Cu  1.793000  7.227001  5.420002
Cu  1.788997  9.015997  3.606003
Cu -0.007000  7.220001  7.220001
Cu -0.006004  9.015997  9.015997
Cu  1.797002  7.220996  9.015997
Cu  1.797002  9.015997  7.220996
Cu  3.606003 -0.009001 -0.009001
Cu  3.606003  1.790998  1.790998
Cu  5.420002 -0.013999  1.793000
Cu  5.420002  1.793000 -0.013999
Cu  3.606003 -0.039002  3.606003
Cu  3.606003  1.790998  5.420997
Cu  5.420002 -0.013999  5.420002
Cu  5.420997  1.790998  3.606003
Cu  3.606003 -0.009001  7.222002
Cu  3.606003  1.788997  9.015997
Cu  5.415999 -0.007995  9.015997
Cu  5.420002  1.793000  7.227001
Cu  3.606003  3.606003 -0.039002
Cu  3.606003  5.420997  1.790998
Cu  5.420997  3.606003  1.790998
Cu  5.420002  5.420002 -0.013999
Cu  3.606003  5.420997  5.420997
Cu  5.420997  3.606003  5.420997
Cu  5.420997  5.420997  3.606003
Cu  3.606003  3.606003  7.252003
Cu  3.606003  5.424005  9.015997
Cu  5.424005  3.606003  9.015997
Cu  5.420002  5.420002  7.227001
Cu  3.606003  7.222002 -0.009001
Cu  3.606003  9.015997  1.788997
Cu  5.420002  7.227001  1.793000
Cu  5.415999  9.015997 -0.007995
Cu  3.606003  7.252003  3.606003
Cu  3.606003  9.015997  5.424005
Cu  5.420002  7.227001  5.420002
Cu  5.424005  9.015997  3.606003
Cu  3.606003  7.222002  7.222002
Cu  3.606003  9.015997  9.015997
Cu  5.415999  7.220996  9.015997
Cu  5.415999  9.015997  7.220996
Cu  7.220001 -0.007000 -0.007000
Cu  7.227001  1.793000  1.793000
Cu  9.015997 -0.007995  1.797002
Cu  9.015997  1.797002 -0.007995
Cu  7.222002 -0.009001  3.606003
Cu  7.227001  1.793000  5.420002
Cu  9.015997 -0.007995  5.415999
Cu  9.015997  1.788997  3.606003
Cu  7.220001 -0.007000  7.220001
Cu  7.220996  1.797002  9.015997
Cu  9.015997 -0.006004  9.015997
Cu  9.015997  1.797002  7.220996
Cu  7.222002  3.606003 -0.009001
Cu  7.227001  5.420002  1.793000
Cu  9.015997  3.606003  1.788997
Cu  9.015997  5.415999 -0.007995
Cu  7.252003  3.606003  3.606003
Cu  7.227001  5.420002  5.420002
Cu  9.015997  3.606003  5.424005
Cu  9.015997  5.424005  3.606003
Cu  7.222002  3.606003  7.222002
Cu  7.220996  5.415999  9.015997
Cu  9.015997  3.606003  9.015997
Cu  9.015997  5.415999  7.220996
Cu  7.220001  7.220001 -0.007000
Cu  7.220996  9.015997  1.797002
Cu  9.015997  7.220996  1.797002
Cu  9.015997  9.015997 -0.006004
Cu  7.222002  7.222002  3.606003
Cu  7.220996  9.015997  5.415999
Cu  9.015997  7.220996  5.415999
Cu  9.015997  9.015997  3.606003
Cu  7.220001  7.220001  7.220001
Cu  7.218000  9.015997  9.015997
Cu  9.015997  7.218000  9.015997
Cu  9.015997  9.015997  7.218000
%ENDBLOCK POSITIONS_ABS

