#######################################################
#CASTEP cell file: outputs/CuVac-CASTEP-3.cell
#Created using the Atomic Simulation Environment (ASE)#
#######################################################

%BLOCK LATTICE_CART
10.818734  0.000000  0.000000
 0.000000 10.818734  0.000000
 0.000000  0.000000 10.818734
%ENDBLOCK LATTICE_CART

%BLOCK POSITIONS_ABS
Cu  0.001094 -0.002639 -0.002639
Cu -0.002622  1.794291  1.794291
Cu  1.803638 -0.001308  1.803363
Cu  1.803638  1.803363 -0.001308
Cu  0.005578 -0.003941  3.600727
Cu -0.056408  1.757208  5.421218
Cu  1.796588  0.008245  5.411899
Cu  1.798150  1.831128  3.620799
Cu -0.005149 -0.013054  7.226017
Cu -0.005159  1.789571  9.028619
Cu  1.804273 -0.004001  9.019587
Cu  1.782828  1.789558  7.226027
Cu  0.005578  3.600727 -0.003941
Cu -0.056408  5.421218  1.757208
Cu  1.798150  3.620799  1.831128
Cu  1.796588  5.411899  0.008245
Cu -0.077446  3.590260  3.590260
Cu -0.077398  5.425315  5.425315
Cu  1.616939  3.559578  5.455951
Cu  1.616939  5.455951  3.559578
Cu -0.056378  3.594388  7.258364
Cu  0.005616  5.414879  9.019492
Cu  1.796590  3.603682  9.007349
Cu  1.798236  5.394745  7.184405
Cu -0.005149  7.226017 -0.013054
Cu -0.005159  9.028619  1.789571
Cu  1.782828  7.226027  1.789558
Cu  1.804273  9.019587 -0.004001
Cu -0.056378  7.258364  3.594388
Cu  0.005616  9.019492  5.414879
Cu  1.798236  7.184405  5.394745
Cu  1.796590  9.007349  3.603682
Cu -0.002549  7.221265  7.221265
Cu  0.001121  9.018190  9.018190
Cu  1.803682  7.212211  9.016890
Cu  1.803682  9.016890  7.212211
Cu  3.606276  0.002412  0.002412
Cu  3.606276  1.822556  1.822556
Cu  5.408918 -0.001312  1.803355
Cu  5.408918  1.803355 -0.001312
Cu  3.606277 -0.013034  3.608464
Cu  3.606270  1.846483  5.395060
Cu  5.415963  0.008245  5.411903
Cu  5.414396  1.831122  3.620796
Cu  3.606276  0.009073  7.209221
Cu  3.606276  1.806354  9.006539
Cu  5.408286 -0.004002  9.019589
Cu  5.429718  1.789556  7.226029
Cu  3.606277  3.608464 -0.013034
Cu  3.606270  5.395060  1.846483
Cu  5.414396  3.620796  1.831122
Cu  5.415963  5.411903  0.008245
Cu  3.606259  4.508073  4.508073
Cu  5.595572  3.559587  5.455942
Cu  5.595572  5.455942  3.559587
Cu  3.606270  3.620458  7.169122
Cu  3.606277  5.407095  9.028627
Cu  5.415961  3.603678  9.007350
Cu  5.414310  5.394748  7.184411
Cu  3.606276  7.209221  0.009073
Cu  3.606276  9.006539  1.806354
Cu  5.429718  7.226029  1.789556
Cu  5.408286  9.019589 -0.004002
Cu  3.606270  7.169122  3.620458
Cu  3.606277  9.028627  5.407095
Cu  5.414310  7.184411  5.394748
Cu  5.415961  9.007350  3.603678
Cu  3.606276  7.193026  7.193026
Cu  3.606276  9.013194  9.013194
Cu  5.408874  7.212219  9.016894
Cu  5.408874  9.016894  7.212219
Cu  7.211481 -0.002643 -0.002643
Cu  7.215175  1.794286  1.794286
Cu  9.015649 -0.001557  1.791698
Cu  9.015649  1.791698 -0.001557
Cu  7.206971 -0.003941  3.600726
Cu  7.268947  1.757214  5.421220
Cu  9.015637 -0.032122  5.416651
Cu  9.015636  1.768678  3.593805
Cu  7.217711 -0.013052  7.226022
Cu  7.217721  1.789567  9.028618
Cu  9.015657 -0.008825  9.024371
Cu  9.015642  1.776327  7.239272
Cu  7.206971  3.600726 -0.003941
Cu  7.268947  5.421220  1.757214
Cu  9.015636  3.593805  1.768678
Cu  9.015637  5.416651 -0.032122
Cu  7.289980  3.590262  3.590262
Cu  7.289932  5.425313  5.425313
Cu  9.015638  3.588345  5.427258
Cu  9.015638  5.427258  3.588345
Cu  7.268917  3.594386  7.258358
Cu  7.206934  5.414880  9.019491
Cu  9.015637  3.598978  9.047668
Cu  9.015636  5.421795  7.246880
Cu  7.217711  7.226022 -0.013052
Cu  7.217721  9.028618  1.789567
Cu  9.015642  7.239272  1.776327
Cu  9.015657  9.024371 -0.008825
Cu  7.268917  7.258358  3.594386
Cu  7.206934  9.019491  5.414880
Cu  9.015636  7.246880  5.421795
Cu  9.015637  9.047668  3.598978
Cu  7.215102  7.221270  7.221270
Cu  7.211454  9.018194  9.018194
Cu  9.015649  7.223876  9.017090
Cu  9.015649  9.017090  7.223876
%ENDBLOCK POSITIONS_ABS

