#######################################################
#CASTEP cell file: outputs/CuVac-ASE-4.cell
#Created using the Atomic Simulation Environment (ASE)#
#######################################################

%BLOCK LATTICE_CART
10.818734  0.000000  0.000000
 0.000000 10.818734  0.000000
 0.000000  0.000000 10.818734
%ENDBLOCK LATTICE_CART

%BLOCK POSITIONS_ABS
Cu  0.003989 -0.005932 -0.005932
Cu -0.008121  1.789058  1.789058
Cu  1.803697 -0.005165  1.801041
Cu  1.803697  1.801041 -0.005165
Cu  0.002663 -0.009557  3.600195
Cu -0.057552  1.756794  5.421903
Cu  1.797542  0.006801  5.412214
Cu  1.784318  1.816968  3.613135
Cu -0.002488 -0.015402  7.225619
Cu -0.003205  1.788625  9.026568
Cu  1.807863 -0.005790  9.016079
Cu  1.783444  1.793014  7.223078
Cu  0.002663  3.600195 -0.009557
Cu -0.057552  5.421903  1.756794
Cu  1.784318  3.613135  1.816968
Cu  1.797542  5.412214  0.006801
Cu -0.086646  3.587450  3.587450
Cu -0.072477  5.423242  5.423242
Cu  1.631987  3.556957  5.435813
Cu  1.631987  5.435813  3.556957
Cu -0.050214  3.594981  7.252514
Cu  0.008669  5.415148  9.015686
Cu  1.796254  3.605066  9.006661
Cu  1.806118  5.388313  7.172030
Cu -0.002488  7.225619 -0.015402
Cu -0.003205  9.026568  1.788625
Cu  1.783444  7.223078  1.793014
Cu  1.807863  9.016079 -0.005790
Cu -0.050214  7.252514  3.594981
Cu  0.008669  9.015686  5.415148
Cu  1.806118  7.172030  5.388313
Cu  1.796254  9.006661  3.605066
Cu  0.002305  7.218006  7.218006
Cu  0.005679  9.016185  9.016185
Cu  1.808909  7.207232  9.010583
Cu  1.808909  9.010583  7.207232
Cu  3.606245 -0.000232 -0.000232
Cu  3.606245  1.817523  1.817523
Cu  5.408792 -0.005165  1.801041
Cu  5.408792  1.801041 -0.005165
Cu  3.606245 -0.016577  3.609238
Cu  3.606245  1.855228  5.391054
Cu  5.414947  0.006801  5.412214
Cu  5.428171  1.816968  3.613135
Cu  3.606245  0.010686  7.204964
Cu  3.606245  1.806006  9.006217
Cu  5.404626 -0.005790  9.016079
Cu  5.429045  1.793014  7.223078
Cu  3.606245  3.609238 -0.016577
Cu  3.606245  5.391054  1.855228
Cu  5.428171  3.613135  1.816968
Cu  5.414947  5.412214  0.006801
Cu  3.606244  4.830320  4.830320
Cu  5.580502  3.556957  5.435813
Cu  5.580502  5.435813  3.556957
Cu  3.606245  3.614330  7.185502
Cu  3.606245  5.406280  9.022163
Cu  5.416235  3.605066  9.006661
Cu  5.406371  5.388313  7.172030
Cu  3.606245  7.204964  0.010686
Cu  3.606245  9.006217  1.806006
Cu  5.429045  7.223078  1.793014
Cu  5.404626  9.016079 -0.005790
Cu  3.606245  7.185502  3.614330
Cu  3.606245  9.022163  5.406280
Cu  5.406371  7.172030  5.388313
Cu  5.416235  9.006661  3.605066
Cu  3.606245  7.173759  7.173759
Cu  3.606245  9.006925  9.006925
Cu  5.403580  7.207232  9.010583
Cu  5.403580  9.010583  7.207232
Cu  7.208500 -0.005932 -0.005932
Cu  7.220610  1.789058  1.789058
Cu  9.015612 -0.006830  1.788154
Cu  9.015612  1.788154 -0.006830
Cu  7.209826 -0.009557  3.600195
Cu  7.270041  1.756794  5.421903
Cu  9.015612 -0.035668  5.418576
Cu  9.015612  1.763236  3.592438
Cu  7.214977 -0.015402  7.225619
Cu  7.215694  1.788625  9.026568
Cu  9.015612 -0.011749  9.023440
Cu  9.015612  1.775134  7.240469
Cu  7.209826  3.600195 -0.009557
Cu  7.270041  5.421903  1.756794
Cu  9.015612  3.592438  1.763236
Cu  9.015612  5.418576 -0.035668
Cu  7.299135  3.587450  3.587450
Cu  7.284966  5.423242  5.423242
Cu  9.015612  3.587848  5.429317
Cu  9.015612  5.429317  3.587848
Cu  7.262703  3.594981  7.252514
Cu  7.203820  5.415148  9.015686
Cu  9.015612  3.598360  9.042754
Cu  9.015612  5.421830  7.245451
Cu  7.214977  7.225619 -0.015402
Cu  7.215694  9.026568  1.788625
Cu  9.015612  7.240469  1.775134
Cu  9.015612  9.023440 -0.011749
Cu  7.262703  7.252514  3.594981
Cu  7.203820  9.015686  5.415148
Cu  9.015612  7.245451  5.421830
Cu  9.015612  9.042754  3.598360
Cu  7.210184  7.218006  7.218006
Cu  7.206810  9.016185  9.016185
Cu  9.015612  7.224395  9.015568
Cu  9.015612  9.015568  7.224395
%ENDBLOCK POSITIONS_ABS

