#######################################################
#CASTEP cell file: outputs/CuVac-SOCKET-1.cell
#Created using the Atomic Simulation Environment (ASE)#
#######################################################

%BLOCK LATTICE_CART
10.818734  0.000000  0.000000
 0.000000 10.818734  0.000000
 0.000000  0.000000 10.818734
%ENDBLOCK LATTICE_CART

%BLOCK POSITIONS_ABS
Cu -0.007013 -0.007013 -0.007013
Cu -0.014041  1.792949  1.792949
Cu  1.792949 -0.014041  1.792949
Cu  1.792949  1.792949 -0.014041
Cu -0.009027 -0.009027  3.606043
Cu -0.014041  1.792949  5.419967
Cu  1.792949 -0.014041  5.419967
Cu  1.791022  1.791022  3.606043
Cu -0.007013 -0.007013  7.219929
Cu -0.008066  1.796949  9.015933
Cu  1.796949 -0.008066  9.015933
Cu  1.792949  1.792949  7.226957
Cu -0.009027  3.606043 -0.009027
Cu -0.014041  5.419967  1.792949
Cu  1.791022  3.606043  1.791022
Cu  1.792949  5.419967 -0.014041
Cu -0.039022  3.606043  3.606043
Cu -0.014041  5.419967  5.419967
Cu  1.791022  3.606043  5.421056
Cu  1.791022  5.421056  3.606043
Cu -0.009027  3.606043  7.221943
Cu -0.008066  5.415966  9.015933
Cu  1.788984  3.606043  9.015933
Cu  1.792949  5.419967  7.226957
Cu -0.007013  7.219929 -0.007013
Cu -0.008066  9.015933  1.796949
Cu  1.792949  7.226957  1.792949
Cu  1.796949  9.015933 -0.008066
Cu -0.009027  7.221943  3.606043
Cu -0.008066  9.015933  5.415966
Cu  1.792949  7.226957  5.419967
Cu  1.788984  9.015933  3.606043
Cu -0.007013  7.219929  7.219929
Cu -0.005949  9.015933  9.015933
Cu  1.796949  7.220982  9.015933
Cu  1.796949  9.015933  7.220982
Cu  3.606043 -0.009027 -0.009027
Cu  3.606043  1.791022  1.791022
Cu  5.419967 -0.014041  1.792949
Cu  5.419967  1.792949 -0.014041
Cu  3.606043 -0.039022  3.606043
Cu  3.606043  1.791022  5.421056
Cu  5.419967 -0.014041  5.419967
Cu  5.421056  1.791022  3.606043
Cu  3.606043 -0.009027  7.221943
Cu  3.606043  1.788984  9.015933
Cu  5.415966 -0.008066  9.015933
Cu  5.419967  1.792949  7.226957
Cu  3.606043  3.606043 -0.039022
Cu  3.606043  5.421056  1.791022
Cu  5.421056  3.606043  1.791022
Cu  5.419967  5.419967 -0.014041
Cu  3.606043  5.421056  5.421056
Cu  5.421056  3.606043  5.421056
Cu  5.421056  5.421056  3.606043
Cu  3.606043  3.606043  7.251938
Cu  3.606043  5.423931  9.015933
Cu  5.423931  3.606043  9.015933
Cu  5.419967  5.419967  7.226957
Cu  3.606043  7.221943 -0.009027
Cu  3.606043  9.015933  1.788984
Cu  5.419967  7.226957  1.792949
Cu  5.415966  9.015933 -0.008066
Cu  3.606043  7.251938  3.606043
Cu  3.606043  9.015933  5.423931
Cu  5.419967  7.226957  5.419967
Cu  5.423931  9.015933  3.606043
Cu  3.606043  7.221943  7.221943
Cu  3.606043  9.015933  9.015933
Cu  5.415966  7.220982  9.015933
Cu  5.415966  9.015933  7.220982
Cu  7.219929 -0.007013 -0.007013
Cu  7.226957  1.792949  1.792949
Cu  9.015933 -0.008066  1.796949
Cu  9.015933  1.796949 -0.008066
Cu  7.221943 -0.009027  3.606043
Cu  7.226957  1.792949  5.419967
Cu  9.015933 -0.008066  5.415966
Cu  9.015933  1.788984  3.606043
Cu  7.219929 -0.007013  7.219929
Cu  7.220982  1.796949  9.015933
Cu  9.015933 -0.005949  9.015933
Cu  9.015933  1.796949  7.220982
Cu  7.221943  3.606043 -0.009027
Cu  7.226957  5.419967  1.792949
Cu  9.015933  3.606043  1.788984
Cu  9.015933  5.415966 -0.008066
Cu  7.251938  3.606043  3.606043
Cu  7.226957  5.419967  5.419967
Cu  9.015933  3.606043  5.423931
Cu  9.015933  5.423931  3.606043
Cu  7.221943  3.606043  7.221943
Cu  7.220982  5.415966  9.015933
Cu  9.015933  3.606043  9.015933
Cu  9.015933  5.415966  7.220982
Cu  7.219929  7.219929 -0.007013
Cu  7.220982  9.015933  1.796949
Cu  9.015933  7.220982  1.796949
Cu  9.015933  9.015933 -0.005949
Cu  7.221943  7.221943  3.606043
Cu  7.220982  9.015933  5.415966
Cu  9.015933  7.220982  5.415966
Cu  9.015933  9.015933  3.606043
Cu  7.219929  7.219929  7.219929
Cu  7.218026  9.015933  9.015933
Cu  9.015933  7.218026  9.015933
Cu  9.015933  9.015933  7.218026
%ENDBLOCK POSITIONS_ABS

