#######################################################
#CASTEP cell file: outputs/CuVac-CASTEP-6.cell
#Created using the Atomic Simulation Environment (ASE)#
#######################################################

%BLOCK LATTICE_CART
10.818734  0.000000  0.000000
 0.000000 10.818734  0.000000
 0.000000  0.000000 10.818734
%ENDBLOCK LATTICE_CART

%BLOCK POSITIONS_ABS
Cu -0.007000 -0.007000 -0.007000
Cu -0.014000  1.793000  1.793000
Cu  1.793000 -0.014000  1.793000
Cu  1.793000  1.793000 -0.014000
Cu -0.009000 -0.009000  3.606000
Cu -0.014000  1.793000  5.420000
Cu  1.793000 -0.014000  5.420000
Cu  1.791000  1.791000  3.606000
Cu -0.007000 -0.007000  7.220000
Cu -0.008000  1.797000  9.016000
Cu  1.797000 -0.008000  9.016000
Cu  1.793000  1.793000  7.227000
Cu -0.009000  3.606000 -0.009000
Cu -0.014000  5.420000  1.793000
Cu  1.791000  3.606000  1.791000
Cu  1.793000  5.420000 -0.014000
Cu -0.039000  3.606000  3.606000
Cu -0.014000  5.420000  5.420000
Cu  1.791000  3.606000  5.421000
Cu  1.791000  5.421000  3.606000
Cu -0.009000  3.606000  7.222000
Cu -0.008000  5.416000  9.016000
Cu  1.789000  3.606000  9.016000
Cu  1.793000  5.420000  7.227000
Cu -0.007000  7.220000 -0.007000
Cu -0.008000  9.016000  1.797000
Cu  1.793000  7.227000  1.793000
Cu  1.797000  9.016000 -0.008000
Cu -0.009000  7.222000  3.606000
Cu -0.008000  9.016000  5.416000
Cu  1.793000  7.227000  5.420000
Cu  1.789000  9.016000  3.606000
Cu -0.007000  7.220000  7.220000
Cu -0.006000  9.016000  9.016000
Cu  1.797000  7.221000  9.016000
Cu  1.797000  9.016000  7.221000
Cu  3.606000 -0.009000 -0.009000
Cu  3.606000  1.791000  1.791000
Cu  5.420000 -0.014000  1.793000
Cu  5.420000  1.793000 -0.014000
Cu  3.606000 -0.039000  3.606000
Cu  3.606000  1.791000  5.421000
Cu  5.420000 -0.014000  5.420000
Cu  5.421000  1.791000  3.606000
Cu  3.606000 -0.009000  7.222000
Cu  3.606000  1.789000  9.016000
Cu  5.416000 -0.008000  9.016000
Cu  5.420000  1.793000  7.227000
Cu  3.606000  3.606000 -0.039000
Cu  3.606000  5.421000  1.791000
Cu  5.421000  3.606000  1.791000
Cu  5.420000  5.420000 -0.014000
Cu  3.606000  5.421000  5.421000
Cu  5.421000  3.606000  5.421000
Cu  5.421000  5.421000  3.606000
Cu  3.606000  3.606000  7.252000
Cu  3.606000  5.424000  9.016000
Cu  5.424000  3.606000  9.016000
Cu  5.420000  5.420000  7.227000
Cu  3.606000  7.222000 -0.009000
Cu  3.606000  9.016000  1.789000
Cu  5.420000  7.227000  1.793000
Cu  5.416000  9.016000 -0.008000
Cu  3.606000  7.252000  3.606000
Cu  3.606000  9.016000  5.424000
Cu  5.420000  7.227000  5.420000
Cu  5.424000  9.016000  3.606000
Cu  3.606000  7.222000  7.222000
Cu  3.606000  9.016000  9.016000
Cu  5.416000  7.221000  9.016000
Cu  5.416000  9.016000  7.221000
Cu  7.220000 -0.007000 -0.007000
Cu  7.227000  1.793000  1.793000
Cu  9.016000 -0.008000  1.797000
Cu  9.016000  1.797000 -0.008000
Cu  7.222000 -0.009000  3.606000
Cu  7.227000  1.793000  5.420000
Cu  9.016000 -0.008000  5.416000
Cu  9.016000  1.789000  3.606000
Cu  7.220000 -0.007000  7.220000
Cu  7.221000  1.797000  9.016000
Cu  9.016000 -0.006000  9.016000
Cu  9.016000  1.797000  7.221000
Cu  7.222000  3.606000 -0.009000
Cu  7.227000  5.420000  1.793000
Cu  9.016000  3.606000  1.789000
Cu  9.016000  5.416000 -0.008000
Cu  7.252000  3.606000  3.606000
Cu  7.227000  5.420000  5.420000
Cu  9.016000  3.606000  5.424000
Cu  9.016000  5.424000  3.606000
Cu  7.222000  3.606000  7.222000
Cu  7.221000  5.416000  9.016000
Cu  9.016000  3.606000  9.016000
Cu  9.016000  5.416000  7.221000
Cu  7.220000  7.220000 -0.007000
Cu  7.221000  9.016000  1.797000
Cu  9.016000  7.221000  1.797000
Cu  9.016000  9.016000 -0.006000
Cu  7.222000  7.222000  3.606000
Cu  7.221000  9.016000  5.416000
Cu  9.016000  7.221000  5.416000
Cu  9.016000  9.016000  3.606000
Cu  7.220000  7.220000  7.220000
Cu  7.218000  9.016000  9.016000
Cu  9.016000  7.218000  9.016000
Cu  9.016000  9.016000  7.218000
%ENDBLOCK POSITIONS_ABS

