#######################################################
#CASTEP cell file: outputs/CuVac-ASE-5.cell
#Created using the Atomic Simulation Environment (ASE)#
#######################################################

%BLOCK LATTICE_CART
10.818734  0.000000  0.000000
 0.000000 10.818734  0.000000
 0.000000  0.000000 10.818734
%ENDBLOCK LATTICE_CART

%BLOCK POSITIONS_ABS
Cu -0.000423 -0.008505 -0.008505
Cu -0.012397  1.787052  1.787052
Cu  1.798900 -0.011118  1.795348
Cu  1.798900  1.795348 -0.011118
Cu -0.002577 -0.012517  3.601659
Cu -0.045734  1.766587  5.420678
Cu  1.796284 -0.000077  5.414249
Cu  1.781318  1.800812  3.605480
Cu -0.003816 -0.015934  7.222618
Cu -0.005607  1.790057  9.021936
Cu  1.804044 -0.009693  9.013420
Cu  1.784080  1.791818  7.224171
Cu -0.002577  3.601659 -0.012517
Cu -0.045734  5.420678  1.766587
Cu  1.781318  3.605480  1.800812
Cu  1.796284  5.414249 -0.000077
Cu -0.075547  3.590404  3.590404
Cu -0.050355  5.418461  5.418461
Cu  1.689465  3.568001  5.419657
Cu  1.689465  5.419657  3.568001
Cu -0.034546  3.597672  7.238948
Cu  0.007118  5.414195  9.010800
Cu  1.794108  3.604860  9.008883
Cu  1.810445  5.390389  7.179628
Cu -0.003816  7.222618 -0.015934
Cu -0.005607  9.021936  1.790057
Cu  1.784080  7.224171  1.791818
Cu  1.804044  9.013420 -0.009693
Cu -0.034546  7.238948  3.597672
Cu  0.007118  9.010800  5.414195
Cu  1.810445  7.179628  5.390389
Cu  1.794108  9.008883  3.604860
Cu  0.005363  7.213182  7.213182
Cu  0.003290  9.012148  9.012148
Cu  1.809088  7.206485  9.006064
Cu  1.809088  9.006064  7.206485
Cu  3.606245 -0.006773 -0.006773
Cu  3.606245  1.803619  1.803619
Cu  5.413589 -0.011118  1.795348
Cu  5.413589  1.795348 -0.011118
Cu  3.606245 -0.025361  3.607007
Cu  3.606245  1.834720  5.399838
Cu  5.416205 -0.000077  5.414249
Cu  5.431171  1.800812  3.605480
Cu  3.606245  0.004805  7.208780
Cu  3.606245  1.797707  9.010360
Cu  5.408445 -0.009693  9.013420
Cu  5.428409  1.791818  7.224171
Cu  3.606245  3.607007 -0.025361
Cu  3.606245  5.399838  1.834720
Cu  5.431171  3.605480  1.800812
Cu  5.416205  5.414249 -0.000077
Cu  3.606244  5.143923  5.143923
Cu  5.523024  3.568001  5.419657
Cu  5.523024  5.419657  3.568001
Cu  3.606245  3.600535  7.214307
Cu  3.606245  5.408683  9.016755
Cu  5.418381  3.604860  9.008883
Cu  5.402044  5.390389  7.179628
Cu  3.606245  7.208780  0.004805
Cu  3.606245  9.010360  1.797707
Cu  5.428409  7.224171  1.791818
Cu  5.408445  9.013420 -0.009693
Cu  3.606245  7.214307  3.600535
Cu  3.606245  9.016755  5.408683
Cu  5.402044  7.179628  5.390389
Cu  5.418381  9.008883  3.604860
Cu  3.606245  7.167406  7.167406
Cu  3.606245  9.002796  9.002796
Cu  5.403401  7.206485  9.006064
Cu  5.403401  9.006064  7.206485
Cu  7.212912 -0.008505 -0.008505
Cu  7.224886  1.787052  1.787052
Cu  9.015611 -0.009407  1.789706
Cu  9.015611  1.789706 -0.009407
Cu  7.215066 -0.012517  3.601659
Cu  7.258223  1.766587  5.420678
Cu  9.015612 -0.031549  5.417353
Cu  9.015612  1.767617  3.595348
Cu  7.216305 -0.015934  7.222618
Cu  7.218096  1.790057  9.021936
Cu  9.015611 -0.012252  9.019043
Cu  9.015612  1.780638  7.234308
Cu  7.215066  3.601659 -0.012517
Cu  7.258223  5.420678  1.766587
Cu  9.015612  3.595348  1.767617
Cu  9.015612  5.417353 -0.031549
Cu  7.288036  3.590404  3.590404
Cu  7.262844  5.418461  5.418461
Cu  9.015611  3.592952  5.426666
Cu  9.015611  5.426666  3.592952
Cu  7.247035  3.597672  7.238948
Cu  7.205371  5.414195  9.010800
Cu  9.015611  3.601373  9.031143
Cu  9.015612  5.418643  7.234660
Cu  7.216305  7.222618 -0.015934
Cu  7.218096  9.021936  1.790057
Cu  9.015612  7.234308  1.780638
Cu  9.015611  9.019043 -0.012252
Cu  7.247035  7.238948  3.597672
Cu  7.205371  9.010800  5.414195
Cu  9.015612  7.234660  5.418643
Cu  9.015611  9.031143  3.601373
Cu  7.207126  7.213182  7.213182
Cu  7.209199  9.012148  9.012148
Cu  9.015611  7.219801  9.010627
Cu  9.015611  9.010627  7.219801
%ENDBLOCK POSITIONS_ABS

