#######################################################
#CASTEP cell file: outputs/CuVac-ASE-4.cell
#Created using the Atomic Simulation Environment (ASE)#
#######################################################

%BLOCK LATTICE_CART
10.818734  0.000000  0.000000
 0.000000 10.818734  0.000000
 0.000000  0.000000 10.818734
%ENDBLOCK LATTICE_CART

%BLOCK POSITIONS_ABS
Cu  0.001577 -0.005152 -0.005152
Cu -0.007614  1.790057  1.790057
Cu  1.802214 -0.005425  1.800222
Cu  1.802214  1.800222 -0.005425
Cu  0.002292 -0.008424  3.600752
Cu -0.056365  1.757528  5.421530
Cu  1.797041  0.006548  5.412636
Cu  1.787181  1.816600  3.613231
Cu -0.003915 -0.014740  7.225337
Cu -0.004650  1.789151  9.026288
Cu  1.805456 -0.006073  9.016741
Cu  1.783060  1.791138  7.225065
Cu  0.002292  3.600752 -0.008424
Cu -0.056365  5.421530  1.757528
Cu  1.787181  3.613231  1.816600
Cu  1.797041  5.412636  0.006548
Cu -0.082519  3.588506  3.588506
Cu -0.068877  5.422411  5.422411
Cu  1.633956  3.555181  5.437902
Cu  1.633956  5.437902  3.555181
Cu -0.049237  3.595433  7.252036
Cu  0.008129  5.414741  9.015122
Cu  1.795858  3.604811  9.007094
Cu  1.808290  5.388790  7.173257
Cu -0.003915  7.225337 -0.014740
Cu -0.004650  9.026288  1.789151
Cu  1.783060  7.225065  1.791138
Cu  1.805456  9.016741 -0.006073
Cu -0.049237  7.252036  3.595433
Cu  0.008129  9.015122  5.414741
Cu  1.808290  7.173257  5.388790
Cu  1.795858  9.007094  3.604811
Cu  0.002224  7.217556  7.217556
Cu  0.003188  9.015847  9.015847
Cu  1.807071  7.208486  9.011425
Cu  1.807071  9.011425  7.208486
Cu  3.606245 -0.000919 -0.000919
Cu  3.606245  1.814604  1.814604
Cu  5.410275 -0.005425  1.800222
Cu  5.410275  1.800222 -0.005425
Cu  3.606245 -0.017359  3.608603
Cu  3.606245  1.851637  5.393527
Cu  5.415448  0.006548  5.412636
Cu  5.425308  1.816600  3.613231
Cu  3.606245  0.009344  7.207338
Cu  3.606245  1.804120  9.007474
Cu  5.407033 -0.006073  9.016741
Cu  5.429429  1.791138  7.225065
Cu  3.606245  3.608603 -0.017359
Cu  3.606245  5.393527  1.851637
Cu  5.425308  3.613231  1.816600
Cu  5.415448  5.412636  0.006548
Cu  3.606245  4.819564  4.819564
Cu  5.578533  3.555182  5.437902
Cu  5.578533  5.437902  3.555182
Cu  3.606245  3.612923  7.187471
Cu  3.606245  5.406985  9.023367
Cu  5.416631  3.604811  9.007094
Cu  5.404199  5.388790  7.173257
Cu  3.606245  7.207338  0.009344
Cu  3.606245  9.007474  1.804120
Cu  5.429429  7.225065  1.791138
Cu  5.407033  9.016741 -0.006073
Cu  3.606245  7.187471  3.612923
Cu  3.606245  9.023367  5.406985
Cu  5.404199  7.173257  5.388790
Cu  5.416631  9.007094  3.604811
Cu  3.606245  7.177891  7.177891
Cu  3.606245  9.008099  9.008099
Cu  5.405418  7.208486  9.011425
Cu  5.405418  9.011425  7.208486
Cu  7.210912 -0.005152 -0.005152
Cu  7.220103  1.790057  1.790057
Cu  9.015611 -0.005287  1.789779
Cu  9.015611  1.789779 -0.005287
Cu  7.210197 -0.008424  3.600752
Cu  7.268854  1.757528  5.421530
Cu  9.015611 -0.034428  5.417418
Cu  9.015611  1.765470  3.593470
Cu  7.216404 -0.014740  7.225337
Cu  7.217139  1.789151  9.026288
Cu  9.015611 -0.010601  9.022759
Cu  9.015611  1.776708  7.239098
Cu  7.210197  3.600752 -0.008424
Cu  7.268854  5.421530  1.757528
Cu  9.015611  3.593470  1.765470
Cu  9.015611  5.417418 -0.034428
Cu  7.295008  3.588506  3.588506
Cu  7.281366  5.422411  5.422411
Cu  9.015611  3.589255  5.427942
Cu  9.015611  5.427942  3.589255
Cu  7.261726  3.595433  7.252036
Cu  7.204360  5.414741  9.015122
Cu  9.015611  3.599494  9.042092
Cu  9.015611  5.421014  7.243522
Cu  7.216404  7.225337 -0.014740
Cu  7.217139  9.026288  1.789151
Cu  9.015611  7.239098  1.776708
Cu  9.015611  9.022759 -0.010601
Cu  7.261726  7.252036  3.595433
Cu  7.204360  9.015122  5.414741
Cu  9.015611  7.243522  5.421014
Cu  9.015611  9.042092  3.599494
Cu  7.210265  7.217556  7.217556
Cu  7.209301  9.015847  9.015847
Cu  9.015611  7.223119  9.014424
Cu  9.015611  9.014424  7.223119
%ENDBLOCK POSITIONS_ABS

