#######################################################
#CASTEP cell file: outputs/CuVac-CASTEP-5.cell
#Created using the Atomic Simulation Environment (ASE)#
#######################################################

%BLOCK LATTICE_CART
10.818734  0.000000  0.000000
 0.000000 10.818734  0.000000
 0.000000  0.000000 10.818734
%ENDBLOCK LATTICE_CART

%BLOCK POSITIONS_ABS
Cu -0.001316 -0.011899 -0.011899
Cu -0.015390  1.782210  1.782210
Cu  1.797740 -0.014600  1.791427
Cu  1.797740  1.791427 -0.014600
Cu -0.003283 -0.017243  3.601158
Cu -0.050232  1.762070  5.419299
Cu  1.796695  0.000324  5.413243
Cu  1.775854  1.794058  3.599017
Cu -0.003606 -0.020886  7.221360
Cu -0.006332  1.788341  9.020771
Cu  1.804131 -0.013898  9.009533
Cu  1.780997  1.790698  7.223010
Cu -0.003283  3.601158 -0.017243
Cu -0.050232  5.419299  1.762070
Cu  1.775854  3.599017  1.794058
Cu  1.796695  5.413243  0.000324
Cu -0.082121  3.584664  3.584664
Cu -0.049946  5.413018  5.413018
Cu  1.691217  3.562864  5.408565
Cu  1.691217  5.408565  3.562864
Cu -0.034175  3.595229  7.235586
Cu  0.011852  5.412360  9.005093
Cu  1.795142  3.603202  9.008054
Cu  1.813766  5.379270  7.171120
Cu -0.003606  7.221360 -0.020886
Cu -0.006332  9.020771  1.788341
Cu  1.780997  7.223010  1.790698
Cu  1.804131  9.009533 -0.013898
Cu -0.034175  7.235586  3.595229
Cu  0.011852  9.005093  5.412360
Cu  1.813766  7.171120  5.379270
Cu  1.795142  9.008054  3.603202
Cu  0.012846  7.205898  7.205898
Cu  0.005443  9.006404  9.006404
Cu  1.814203  7.199370  8.999072
Cu  1.814203  8.999072  7.199370
Cu  3.606317 -0.011480 -0.011480
Cu  3.606373  1.798930  1.798930
Cu  5.414787 -0.014618  1.791410
Cu  5.414787  1.791410 -0.014618
Cu  3.606346 -0.025924  3.604941
Cu  3.606360  1.834294  5.394230
Cu  5.415818  0.000311  5.413257
Cu  5.436823  1.794060  3.599019
Cu  3.606313  0.005809  7.205710
Cu  3.606316  1.794825  9.010563
Cu  5.408387 -0.013924  9.009534
Cu  5.431507  1.790691  7.223019
Cu  3.606346  3.604941 -0.025924
Cu  3.606360  5.394230  1.834294
Cu  5.436823  3.599019  1.794060
Cu  5.415818  5.413257  0.000311
Cu  3.606348  5.187422  5.187422
Cu  5.521405  3.562871  5.408559
Cu  5.521405  5.408559  3.562871
Cu  3.606322  3.589632  7.213106
Cu  3.606318  5.403216  9.012423
Cu  5.417361  3.603196  9.008046
Cu  5.398716  5.379277  7.171119
Cu  3.606313  7.205710  0.005809
Cu  3.606316  9.010563  1.794825
Cu  5.431507  7.223019  1.790691
Cu  5.408387  9.009534 -0.013924
Cu  3.606322  7.213106  3.589632
Cu  3.606318  9.012423  5.403216
Cu  5.398716  7.171119  5.379277
Cu  5.417361  9.008046  3.603196
Cu  3.606303  7.153365  7.153365
Cu  3.606296  8.995348  8.995348
Cu  5.398301  7.199404  8.999072
Cu  5.398301  8.999072  7.199404
Cu  7.213735 -0.011918 -0.011918
Cu  7.227799  1.782174  1.782174
Cu  9.015534 -0.012818  1.787704
Cu  9.015534  1.787704 -0.012818
Cu  7.215666 -0.017277  3.601156
Cu  7.262618  1.762039  5.419330
Cu  9.015517 -0.039679  5.417846
Cu  9.015507  1.760380  3.592669
Cu  7.215999 -0.020901  7.221380
Cu  7.218724  1.788318  9.020768
Cu  9.015565 -0.016304  9.016677
Cu  9.015524  1.777391  7.235014
Cu  7.215666  3.601156 -0.017277
Cu  7.262618  5.419330  1.762039
Cu  9.015507  3.592669  1.760380
Cu  9.015517  5.417846 -0.039679
Cu  7.294536  3.584663  3.584663
Cu  7.262318  5.413046  5.413046
Cu  9.015503  3.589995  5.425141
Cu  9.015503  5.425141  3.589995
Cu  7.246543  3.595230  7.235613
Cu  7.200511  5.412378  9.005085
Cu  9.015519  3.601645  9.027826
Cu  9.015514  5.416776  7.231398
Cu  7.215999  7.221380 -0.020901
Cu  7.218724  9.020768  1.788318
Cu  9.015524  7.235014  1.777391
Cu  9.015565  9.016677 -0.016304
Cu  7.246543  7.235613  3.595230
Cu  7.200511  9.005085  5.412378
Cu  9.015514  7.231398  5.416776
Cu  9.015519  9.027826  3.601645
Cu  7.199528  7.205912  7.205912
Cu  7.207106  9.006409  9.006409
Cu  9.015549  7.216573  9.003099
Cu  9.015549  9.003099  7.216573
%ENDBLOCK POSITIONS_ABS

