#######################################################
#CASTEP cell file: outputs/CuVac-SOCKET-5.cell
#Created using the Atomic Simulation Environment (ASE)#
#######################################################

%BLOCK LATTICE_CART
10.818734  0.000000  0.000000
 0.000000 10.818734  0.000000
 0.000000  0.000000 10.818734
%ENDBLOCK LATTICE_CART

%BLOCK POSITIONS_ABS
Cu -0.007065 -0.007065 -0.007065
Cu -0.014205  1.792745  1.792745
Cu  1.792745 -0.014205  1.792745
Cu  1.792745  1.792745 -0.014205
Cu -0.009129 -0.009129  3.606204
Cu -0.014205  1.792745  5.419830
Cu  1.792745 -0.014205  5.419830
Cu  1.791117  1.791117  3.606204
Cu -0.007065 -0.007065  7.219640
Cu -0.008351  1.796737  9.015676
Cu  1.796737 -0.008351  9.015676
Cu  1.792745  1.792745  7.226780
Cu -0.009129  3.606204 -0.009129
Cu -0.014205  5.419830  1.792745
Cu  1.791117  3.606204  1.791117
Cu  1.792745  5.419830 -0.014205
Cu -0.039103  3.606204  3.606204
Cu -0.014205  5.419830  5.419830
Cu  1.791117  3.606204  5.421290
Cu  1.791117  5.421290  3.606204
Cu -0.009129  3.606204  7.221704
Cu -0.008351  5.415837  9.015676
Cu  1.788936  3.606204  9.015676
Cu  1.792745  5.419830  7.226780
Cu -0.007065  7.219640 -0.007065
Cu -0.008351  9.015676  1.796737
Cu  1.792745  7.226780  1.792745
Cu  1.796737  9.015676 -0.008351
Cu -0.009129  7.221704  3.606204
Cu -0.008351  9.015676  5.415837
Cu  1.792745  7.226780  5.419830
Cu  1.788936  9.015676  3.606204
Cu -0.007065  7.219640  7.219640
Cu -0.005725  9.015676  9.015676
Cu  1.796737  7.220926  9.015676
Cu  1.796737  9.015676  7.220926
Cu  3.606204 -0.009129 -0.009129
Cu  3.606204  1.791117  1.791117
Cu  5.419830 -0.014205  1.792745
Cu  5.419830  1.792745 -0.014205
Cu  3.606204 -0.039103  3.606204
Cu  3.606204  1.791117  5.421290
Cu  5.419830 -0.014205  5.419830
Cu  5.421290  1.791117  3.606204
Cu  3.606204 -0.009129  7.221704
Cu  3.606204  1.788936  9.015676
Cu  5.415837 -0.008351  9.015676
Cu  5.419830  1.792745  7.226780
Cu  3.606204  3.606204 -0.039103
Cu  3.606204  5.421290  1.791117
Cu  5.421290  3.606204  1.791117
Cu  5.419830  5.419830 -0.014205
Cu  3.606204  5.421290  5.421290
Cu  5.421290  3.606204  5.421290
Cu  5.421290  5.421290  3.606204
Cu  3.606204  3.606204  7.251678
Cu  3.606204  5.423639  9.015676
Cu  5.423639  3.606204  9.015676
Cu  5.419830  5.419830  7.226780
Cu  3.606204  7.221704 -0.009129
Cu  3.606204  9.015676  1.788936
Cu  5.419830  7.226780  1.792745
Cu  5.415837  9.015676 -0.008351
Cu  3.606204  7.251678  3.606204
Cu  3.606204  9.015676  5.423639
Cu  5.419830  7.226780  5.419830
Cu  5.423639  9.015676  3.606204
Cu  3.606204  7.221704  7.221704
Cu  3.606204  9.015676  9.015676
Cu  5.415837  7.220926  9.015676
Cu  5.415837  9.015676  7.220926
Cu  7.219640 -0.007065 -0.007065
Cu  7.226780  1.792745  1.792745
Cu  9.015676 -0.008351  1.796737
Cu  9.015676  1.796737 -0.008351
Cu  7.221704 -0.009129  3.606204
Cu  7.226780  1.792745  5.419830
Cu  9.015676 -0.008351  5.415837
Cu  9.015676  1.788936  3.606204
Cu  7.219640 -0.007065  7.219640
Cu  7.220926  1.796737  9.015676
Cu  9.015676 -0.005725  9.015676
Cu  9.015676  1.796737  7.220926
Cu  7.221704  3.606204 -0.009129
Cu  7.226780  5.419830  1.792745
Cu  9.015676  3.606204  1.788936
Cu  9.015676  5.415837 -0.008351
Cu  7.251678  3.606204  3.606204
Cu  7.226780  5.419830  5.419830
Cu  9.015676  3.606204  5.423639
Cu  9.015676  5.423639  3.606204
Cu  7.221704  3.606204  7.221704
Cu  7.220926  5.415837  9.015676
Cu  9.015676  3.606204  9.015676
Cu  9.015676  5.415837  7.220926
Cu  7.219640  7.219640 -0.007065
Cu  7.220926  9.015676  1.796737
Cu  9.015676  7.220926  1.796737
Cu  9.015676  9.015676 -0.005725
Cu  7.221704  7.221704  3.606204
Cu  7.220926  9.015676  5.415837
Cu  9.015676  7.220926  5.415837
Cu  9.015676  9.015676  3.606204
Cu  7.219640  7.219640  7.219640
Cu  7.218132  9.015676  9.015676
Cu  9.015676  7.218132  9.015676
Cu  9.015676  9.015676  7.218132
%ENDBLOCK POSITIONS_ABS

