#######################################################
#CASTEP cell file: outputs/CuVac-ASE-5.cell
#Created using the Atomic Simulation Environment (ASE)#
#######################################################

%BLOCK LATTICE_CART
10.818734  0.000000  0.000000
 0.000000 10.818734  0.000000
 0.000000  0.000000 10.818734
%ENDBLOCK LATTICE_CART

%BLOCK POSITIONS_ABS
Cu  0.001599 -0.009308 -0.009308
Cu -0.012866  1.785499  1.785499
Cu  1.800058 -0.010948  1.795516
Cu  1.800058  1.795516 -0.010948
Cu -0.002586 -0.013663  3.601165
Cu -0.046483  1.765852  5.420726
Cu  1.796754  0.000038  5.413535
Cu  1.778885  1.800783  3.605391
Cu -0.002249 -0.016442  7.222841
Cu -0.004280  1.788945  9.021595
Cu  1.806244 -0.009495  9.012205
Cu  1.784229  1.792805  7.222446
Cu -0.002586  3.601165 -0.013663
Cu -0.046483  5.420726  1.765852
Cu  1.778885  3.605391  1.800783
Cu  1.796754  5.413535  0.000038
Cu -0.078452  3.590043  3.590043
Cu -0.052917  5.418389  5.418389
Cu  1.688532  3.570034  5.417901
Cu  1.688532  5.417901  3.570034
Cu -0.035133  3.597223  7.239162
Cu  0.007447  5.414094  9.010796
Cu  1.794369  3.604998  9.008129
Cu  1.808191  5.389602  7.179420
Cu -0.002249  7.222841 -0.016442
Cu -0.004280  9.021595  1.788945
Cu  1.784229  7.222446  1.792805
Cu  1.806244  9.012205 -0.009495
Cu -0.035133  7.239162  3.597223
Cu  0.007447  9.010796  5.414094
Cu  1.808191  7.179420  5.389602
Cu  1.794369  9.008129  3.604998
Cu  0.004998  7.213867  7.213867
Cu  0.005567  9.011635  9.011635
Cu  1.810714  7.205388  9.005031
Cu  1.810714  9.005031  7.205388
Cu  3.606245 -0.006303 -0.006303
Cu  3.606245  1.805841  1.805841
Cu  5.412431 -0.010948  1.795516
Cu  5.412431  1.795516 -0.010948
Cu  3.606245 -0.024595  3.607447
Cu  3.606245  1.837012  5.397064
Cu  5.415735  0.000038  5.413535
Cu  5.433604  1.800783  3.605391
Cu  3.606245  0.005859  7.206621
Cu  3.606245  1.798672  9.009048
Cu  5.406245 -0.009495  9.012205
Cu  5.428260  1.792805  7.222446
Cu  3.606245  3.607447 -0.024595
Cu  3.606245  5.397064  1.837012
Cu  5.433604  3.605391  1.800783
Cu  5.415735  5.413535  0.000038
Cu  3.606245  5.153246  5.153246
Cu  5.523957  3.570034  5.417901
Cu  5.523957  5.417901  3.570034
Cu  3.606245  3.601747  7.213165
Cu  3.606245  5.407529  9.015063
Cu  5.418120  3.604998  9.008129
Cu  5.404298  5.389602  7.179420
Cu  3.606245  7.206621  0.005859
Cu  3.606245  9.009048  1.798672
Cu  5.428260  7.222446  1.792805
Cu  5.406245  9.012205 -0.009495
Cu  3.606245  7.213165  3.601747
Cu  3.606245  9.015063  5.407529
Cu  5.404298  7.179420  5.389602
Cu  5.418120  9.008129  3.604998
Cu  3.606245  7.164416  7.164416
Cu  3.606245  9.001461  9.001461
Cu  5.401775  7.205388  9.005031
Cu  5.401775  9.005031  7.205388
Cu  7.210890 -0.009308 -0.009308
Cu  7.225355  1.785499  1.785499
Cu  9.015612 -0.010897  1.787728
Cu  9.015612  1.787728 -0.010897
Cu  7.215075 -0.013663  3.601165
Cu  7.258972  1.765852  5.420726
Cu  9.015612 -0.032385  5.417512
Cu  9.015612  1.764753  3.594569
Cu  7.214738 -0.016442  7.222841
Cu  7.216769  1.788945  9.021595
Cu  9.015612 -0.013347  9.019078
Cu  9.015612  1.778680  7.235413
Cu  7.215075  3.601165 -0.013663
Cu  7.258972  5.420726  1.765852
Cu  9.015612  3.594569  1.764753
Cu  9.015612  5.417512 -0.032385
Cu  7.290941  3.590043  3.590043
Cu  7.265406  5.418389  5.418389
Cu  9.015612  3.591773  5.427347
Cu  9.015612  5.427347  3.591773
Cu  7.247622  3.597223  7.239162
Cu  7.205042  5.414094  9.010796
Cu  9.015612  3.600575  9.031339
Cu  9.015612  5.419163  7.236626
Cu  7.214738  7.222841 -0.016442
Cu  7.216769  9.021595  1.788945
Cu  9.015612  7.235413  1.778680
Cu  9.015612  9.019078 -0.013347
Cu  7.247622  7.239162  3.597223
Cu  7.205042  9.010796  5.414094
Cu  9.015612  7.236626  5.419163
Cu  9.015612  9.031339  3.600575
Cu  7.207491  7.213867  7.213867
Cu  7.206922  9.011635  9.011635
Cu  9.015612  7.221005  9.010305
Cu  9.015612  9.010305  7.221005
%ENDBLOCK POSITIONS_ABS

