#######################################################
#CASTEP cell file: outputs/CuVac-SOCKET-2.cell
#Created using the Atomic Simulation Environment (ASE)#
#######################################################

%BLOCK LATTICE_CART
10.818734  0.000000  0.000000
 0.000000 10.818734  0.000000
 0.000000  0.000000 10.818734
%ENDBLOCK LATTICE_CART

%BLOCK POSITIONS_ABS
Cu -0.007026 -0.007026 -0.007026
Cu -0.014082  1.792898  1.792898
Cu  1.792898 -0.014082  1.792898
Cu  1.792898  1.792898 -0.014082
Cu -0.009052 -0.009052  3.606084
Cu -0.014082  1.792898  5.419933
Cu  1.792898 -0.014082  5.419933
Cu  1.791046  1.791046  3.606084
Cu -0.007026 -0.007026  7.219857
Cu -0.008137  1.796896  9.015869
Cu  1.796896 -0.008137  9.015869
Cu  1.792898  1.792898  7.226912
Cu -0.009052  3.606084 -0.009052
Cu -0.014082  5.419933  1.792898
Cu  1.791046  3.606084  1.791046
Cu  1.792898  5.419933 -0.014082
Cu -0.039042  3.606084  3.606084
Cu -0.014082  5.419933  5.419933
Cu  1.791046  3.606084  5.421114
Cu  1.791046  5.421114  3.606084
Cu -0.009052  3.606084  7.221883
Cu -0.008137  5.415934  9.015869
Cu  1.788972  3.606084  9.015869
Cu  1.792898  5.419933  7.226912
Cu -0.007026  7.219857 -0.007026
Cu -0.008137  9.015869  1.796896
Cu  1.792898  7.226912  1.792898
Cu  1.796896  9.015869 -0.008137
Cu -0.009052  7.221883  3.606084
Cu -0.008137  9.015869  5.415934
Cu  1.792898  7.226912  5.419933
Cu  1.788972  9.015869  3.606084
Cu -0.007026  7.219857  7.219857
Cu -0.005893  9.015869  9.015869
Cu  1.796896  7.220968  9.015869
Cu  1.796896  9.015869  7.220968
Cu  3.606084 -0.009052 -0.009052
Cu  3.606084  1.791046  1.791046
Cu  5.419933 -0.014082  1.792898
Cu  5.419933  1.792898 -0.014082
Cu  3.606084 -0.039042  3.606084
Cu  3.606084  1.791046  5.421114
Cu  5.419933 -0.014082  5.419933
Cu  5.421114  1.791046  3.606084
Cu  3.606084 -0.009052  7.221883
Cu  3.606084  1.788972  9.015869
Cu  5.415934 -0.008137  9.015869
Cu  5.419933  1.792898  7.226912
Cu  3.606084  3.606084 -0.039042
Cu  3.606084  5.421114  1.791046
Cu  5.421114  3.606084  1.791046
Cu  5.419933  5.419933 -0.014082
Cu  3.606084  5.421114  5.421114
Cu  5.421114  3.606084  5.421114
Cu  5.421114  5.421114  3.606084
Cu  3.606084  3.606084  7.251873
Cu  3.606084  5.423858  9.015869
Cu  5.423858  3.606084  9.015869
Cu  5.419933  5.419933  7.226912
Cu  3.606084  7.221883 -0.009052
Cu  3.606084  9.015869  1.788972
Cu  5.419933  7.226912  1.792898
Cu  5.415934  9.015869 -0.008137
Cu  3.606084  7.251873  3.606084
Cu  3.606084  9.015869  5.423858
Cu  5.419933  7.226912  5.419933
Cu  5.423858  9.015869  3.606084
Cu  3.606084  7.221883  7.221883
Cu  3.606084  9.015869  9.015869
Cu  5.415934  7.220968  9.015869
Cu  5.415934  9.015869  7.220968
Cu  7.219857 -0.007026 -0.007026
Cu  7.226912  1.792898  1.792898
Cu  9.015869 -0.008137  1.796896
Cu  9.015869  1.796896 -0.008137
Cu  7.221883 -0.009052  3.606084
Cu  7.226912  1.792898  5.419933
Cu  9.015869 -0.008137  5.415934
Cu  9.015869  1.788972  3.606084
Cu  7.219857 -0.007026  7.219857
Cu  7.220968  1.796896  9.015869
Cu  9.015869 -0.005893  9.015869
Cu  9.015869  1.796896  7.220968
Cu  7.221883  3.606084 -0.009052
Cu  7.226912  5.419933  1.792898
Cu  9.015869  3.606084  1.788972
Cu  9.015869  5.415934 -0.008137
Cu  7.251873  3.606084  3.606084
Cu  7.226912  5.419933  5.419933
Cu  9.015869  3.606084  5.423858
Cu  9.015869  5.423858  3.606084
Cu  7.221883  3.606084  7.221883
Cu  7.220968  5.415934  9.015869
Cu  9.015869  3.606084  9.015869
Cu  9.015869  5.415934  7.220968
Cu  7.219857  7.219857 -0.007026
Cu  7.220968  9.015869  1.796896
Cu  9.015869  7.220968  1.796896
Cu  9.015869  9.015869 -0.005893
Cu  7.221883  7.221883  3.606084
Cu  7.220968  9.015869  5.415934
Cu  9.015869  7.220968  5.415934
Cu  9.015869  9.015869  3.606084
Cu  7.219857  7.219857  7.219857
Cu  7.218053  9.015869  9.015869
Cu  9.015869  7.218053  9.015869
Cu  9.015869  9.015869  7.218053
%ENDBLOCK POSITIONS_ABS

