#######################################################
#CASTEP cell file: outputs/CuVac-ASE-1.cell
#Created using the Atomic Simulation Environment (ASE)#
#######################################################

%BLOCK LATTICE_CART
10.818734  0.000000  0.000000
 0.000000 10.818734  0.000000
 0.000000  0.000000 10.818734
%ENDBLOCK LATTICE_CART

%BLOCK POSITIONS_ABS
Cu  0.005567  0.003977  0.003977
Cu  0.004998  1.801745  1.801745
Cu  1.810714  0.010580  1.810223
Cu  1.810714  1.810223  0.010580
Cu  0.007447  0.004816  3.601517
Cu -0.035133  1.776449  5.418389
Cu  1.794369  0.007483  5.410614
Cu  1.808191  1.836192  3.626010
Cu -0.004280 -0.005983  7.226666
Cu -0.002249  1.792770  9.032054
Cu  1.806244  0.003406  9.025106
Cu  1.784229  1.793165  7.222807
Cu  0.007447  3.601517  0.004816
Cu -0.035133  5.418389  1.776449
Cu  1.808191  3.626010  1.836192
Cu  1.794369  5.410614  0.007483
Cu -0.052917  3.597223  3.597223
Cu -0.078452  5.425569  5.425569
Cu  1.688532  3.597710  5.445578
Cu  1.688532  5.445578  3.597710
Cu -0.046483  3.594886  7.249760
Cu -0.002586  5.414447  9.029274
Cu  1.796754  3.602076  9.015573
Cu  1.778885  5.410221  7.214828
Cu -0.004280  7.226666 -0.005983
Cu -0.002249  9.032054  1.792770
Cu  1.784229  7.222807  1.793165
Cu  1.806244  9.025106  0.003406
Cu -0.046483  7.249760  3.594886
Cu -0.002586  9.029274  5.414447
Cu  1.778885  7.214828  5.410221
Cu  1.796754  9.015573  3.602076
Cu -0.012866  7.230113  7.230113
Cu  0.001599  9.024919  9.024919
Cu  1.800058  7.220095  9.026560
Cu  1.800058  9.026560  7.220095
Cu  3.606245  0.014151  0.014151
Cu  3.606245  1.851195  1.851195
Cu  5.401775  0.010580  1.810223
Cu  5.401775  1.810223  0.010580
Cu  3.606245  0.000548  3.608083
Cu  3.606245  1.802447  5.413865
Cu  5.418120  0.007483  5.410614
Cu  5.404298  1.836192  3.626010
Cu  3.606245  0.006564  7.216939
Cu  3.606245  1.808991  9.009752
Cu  5.406245  0.003406  9.025106
Cu  5.428260  1.793165  7.222807
Cu  3.606245  3.608083  0.000548
Cu  3.606245  5.413865  1.802447
Cu  5.404298  3.626010  1.836192
Cu  5.418120  5.410614  0.007483
Cu  3.606245  3.862365  3.862365
Cu  5.523957  3.597710  5.445578
Cu  5.523957  5.445578  3.597710
Cu  3.606245  3.618548  7.178599
Cu  3.606245  5.408164  9.040206
Cu  5.415735  3.602076  9.015573
Cu  5.433604  5.410221  7.214828
Cu  3.606245  7.216939  0.006564
Cu  3.606245  9.009752  1.808991
Cu  5.428260  7.222807  1.793165
Cu  5.406245  9.025106  0.003406
Cu  3.606245  7.178599  3.618548
Cu  3.606245  9.040206  5.408164
Cu  5.433604  7.214828  5.410221
Cu  5.415735  9.015573  3.602076
Cu  3.606245  7.209771  7.209771
Cu  3.606245  9.021915  9.021915
Cu  5.412431  7.220095  9.026560
Cu  5.412431  9.026560  7.220095
Cu  7.206922  0.003977  0.003977
Cu  7.207491  1.801745  1.801745
Cu  9.015612  0.005307  1.794607
Cu  9.015612  1.794607  0.005307
Cu  7.205042  0.004816  3.601517
Cu  7.247622  1.776449  5.418389
Cu  9.015612 -0.015727  5.415037
Cu  9.015612  1.778985  3.596448
Cu  7.216769 -0.005983  7.226666
Cu  7.214738  1.792770  9.032054
Cu  9.015612 -0.003467  9.028959
Cu  9.015612  1.780198  7.236932
Cu  7.205042  3.601517  0.004816
Cu  7.247622  5.418389  1.776449
Cu  9.015612  3.596448  1.778985
Cu  9.015612  5.415037 -0.015727
Cu  7.265406  3.597223  3.597223
Cu  7.290941  5.425569  5.425569
Cu  9.015612  3.588264  5.423838
Cu  9.015612  5.423838  3.588264
Cu  7.258972  3.594886  7.249760
Cu  7.215075  5.414447  9.029274
Cu  9.015612  3.598100  9.047997
Cu  9.015612  5.421042  7.250859
Cu  7.216769  7.226666 -0.005983
Cu  7.214738  9.032054  1.792770
Cu  9.015612  7.236932  1.780198
Cu  9.015612  9.028959 -0.003467
Cu  7.258972  7.249760  3.594886
Cu  7.215075  9.029274  5.414447
Cu  9.015612  7.250859  5.421042
Cu  9.015612  9.047997  3.598100
Cu  7.225355  7.230113  7.230113
Cu  7.210890  9.024919  9.024919
Cu  9.015612  7.227884  9.026509
Cu  9.015612  9.026509  7.227884
%ENDBLOCK POSITIONS_ABS

