#######################################################
#CASTEP cell file: outputs/CuVac-ASE-1.cell
#Created using the Atomic Simulation Environment (ASE)#
#######################################################

%BLOCK LATTICE_CART
10.818734  0.000000  0.000000
 0.000000 10.818734  0.000000
 0.000000  0.000000 10.818734
%ENDBLOCK LATTICE_CART

%BLOCK POSITIONS_ABS
Cu  0.003290  0.003463  0.003463
Cu  0.005363  1.802430  1.802430
Cu  1.809088  0.009547  1.809126
Cu  1.809088  1.809126  0.009547
Cu  0.007118  0.004811  3.601416
Cu -0.034546  1.776663  5.417940
Cu  1.794108  0.006729  5.410752
Cu  1.810445  1.835984  3.625222
Cu -0.005607 -0.006325  7.225555
Cu -0.003816  1.792993  9.031546
Cu  1.804044  0.002191  9.025305
Cu  1.784080  1.791440  7.223793
Cu  0.007118  3.601416  0.004811
Cu -0.034546  5.417940  1.776663
Cu  1.810445  3.625222  1.835984
Cu  1.794108  5.410752  0.006729
Cu -0.050355  3.597151  3.597151
Cu -0.075547  5.425207  5.425207
Cu  1.689465  3.595954  5.447610
Cu  1.689465  5.447610  3.595954
Cu -0.045734  3.594934  7.249024
Cu -0.002577  5.413952  9.028129
Cu  1.796284  3.601363  9.015689
Cu  1.781318  5.410131  7.214799
Cu -0.005607  7.225555 -0.006325
Cu -0.003816  9.031546  1.792993
Cu  1.784080  7.223793  1.791440
Cu  1.804044  9.025305  0.002191
Cu -0.045734  7.249024  3.594934
Cu -0.002577  9.028129  5.413952
Cu  1.781318  7.214799  5.410131
Cu  1.796284  9.015689  3.601363
Cu -0.012397  7.228559  7.228559
Cu -0.000423  9.024116  9.024116
Cu  1.798900  7.220263  9.026729
Cu  1.798900  9.026729  7.220263
Cu  3.606245  0.012815  0.012815
Cu  3.606245  1.848205  1.848205
Cu  5.403401  0.009547  1.809126
Cu  5.403401  1.809126  0.009547
Cu  3.606245 -0.001144  3.606929
Cu  3.606245  1.801305  5.415076
Cu  5.418381  0.006729  5.410752
Cu  5.402044  1.835984  3.625222
Cu  3.606245  0.005252  7.217905
Cu  3.606245  1.806832  9.010807
Cu  5.408445  0.002191  9.025305
Cu  5.428409  1.791440  7.223793
Cu  3.606245  3.606929 -0.001144
Cu  3.606245  5.415076  1.801305
Cu  5.402044  3.625222  1.835984
Cu  5.418381  5.410752  0.006729
Cu  3.606244  3.871688  3.871688
Cu  5.523024  3.595954  5.447610
Cu  5.523024  5.447610  3.595954
Cu  3.606245  3.615774  7.180891
Cu  3.606245  5.408604  9.040972
Cu  5.416205  3.601363  9.015689
Cu  5.431171  5.410131  7.214799
Cu  3.606245  7.217905  0.005252
Cu  3.606245  9.010807  1.806832
Cu  5.428409  7.223793  1.791440
Cu  5.408445  9.025305  0.002191
Cu  3.606245  7.180891  3.615774
Cu  3.606245  9.040972  5.408604
Cu  5.431171  7.214799  5.410131
Cu  5.416205  9.015689  3.601363
Cu  3.606245  7.211992  7.211992
Cu  3.606245  9.022385  9.022385
Cu  5.413589  7.220263  9.026729
Cu  5.413589  9.026729  7.220263
Cu  7.209199  0.003463  0.003463
Cu  7.207126  1.802430  1.802430
Cu  9.015611  0.004984  1.795811
Cu  9.015611  1.795811  0.004984
Cu  7.205371  0.004811  3.601416
Cu  7.247035  1.776663  5.417940
Cu  9.015611 -0.015532  5.414239
Cu  9.015612  1.780951  3.596968
Cu  7.218096 -0.006325  7.225555
Cu  7.216305  1.792993  9.031546
Cu  9.015611 -0.003432  9.027863
Cu  9.015612  1.781304  7.234973
Cu  7.205371  3.601416  0.004811
Cu  7.247035  5.417940  1.776663
Cu  9.015612  3.596968  1.780951
Cu  9.015611  5.414239 -0.015532
Cu  7.262844  3.597151  3.597151
Cu  7.288036  5.425207  5.425207
Cu  9.015611  3.588945  5.422659
Cu  9.015611  5.422659  3.588945
Cu  7.258223  3.594934  7.249024
Cu  7.215066  5.413952  9.028129
Cu  9.015612  3.598259  9.047161
Cu  9.015612  5.420263  7.247994
Cu  7.218096  7.225555 -0.006325
Cu  7.216305  9.031546  1.792993
Cu  9.015612  7.234973  1.781304
Cu  9.015611  9.027863 -0.003432
Cu  7.258223  7.249024  3.594934
Cu  7.215066  9.028129  5.413952
Cu  9.015612  7.247994  5.420263
Cu  9.015612  9.047161  3.598259
Cu  7.224886  7.228559  7.228559
Cu  7.212912  9.024116  9.024116
Cu  9.015611  7.225905  9.025019
Cu  9.015611  9.025019  7.225905
%ENDBLOCK POSITIONS_ABS

