#######################################################
#CASTEP cell file: outputs/CuVac-SOCKET-3.cell
#Created using the Atomic Simulation Environment (ASE)#
#######################################################

%BLOCK LATTICE_CART
10.818734  0.000000  0.000000
 0.000000 10.818734  0.000000
 0.000000  0.000000 10.818734
%ENDBLOCK LATTICE_CART

%BLOCK POSITIONS_ABS
Cu -0.007039 -0.007039 -0.007039
Cu -0.014123  1.792847  1.792847
Cu  1.792847 -0.014123  1.792847
Cu  1.792847  1.792847 -0.014123
Cu -0.009078 -0.009078  3.606124
Cu -0.014123  1.792847  5.419899
Cu  1.792847 -0.014123  5.419899
Cu  1.791070  1.791070  3.606124
Cu -0.007039 -0.007039  7.219784
Cu -0.008209  1.796843  9.015804
Cu  1.796843 -0.008209  9.015804
Cu  1.792847  1.792847  7.226868
Cu -0.009078  3.606124 -0.009078
Cu -0.014123  5.419899  1.792847
Cu  1.791070  3.606124  1.791070
Cu  1.792847  5.419899 -0.014123
Cu -0.039063  3.606124  3.606124
Cu -0.014123  5.419899  5.419899
Cu  1.791070  3.606124  5.421173
Cu  1.791070  5.421173  3.606124
Cu -0.009078  3.606124  7.221823
Cu -0.008209  5.415902  9.015804
Cu  1.788960  3.606124  9.015804
Cu  1.792847  5.419899  7.226868
Cu -0.007039  7.219784 -0.007039
Cu -0.008209  9.015804  1.796843
Cu  1.792847  7.226868  1.792847
Cu  1.796843  9.015804 -0.008209
Cu -0.009078  7.221823  3.606124
Cu -0.008209  9.015804  5.415902
Cu  1.792847  7.226868  5.419899
Cu  1.788960  9.015804  3.606124
Cu -0.007039  7.219784  7.219784
Cu -0.005837  9.015804  9.015804
Cu  1.796843  7.220954  9.015804
Cu  1.796843  9.015804  7.220954
Cu  3.606124 -0.009078 -0.009078
Cu  3.606124  1.791070  1.791070
Cu  5.419899 -0.014123  1.792847
Cu  5.419899  1.792847 -0.014123
Cu  3.606124 -0.039063  3.606124
Cu  3.606124  1.791070  5.421173
Cu  5.419899 -0.014123  5.419899
Cu  5.421173  1.791070  3.606124
Cu  3.606124 -0.009078  7.221823
Cu  3.606124  1.788960  9.015804
Cu  5.415902 -0.008209  9.015804
Cu  5.419899  1.792847  7.226868
Cu  3.606124  3.606124 -0.039063
Cu  3.606124  5.421173  1.791070
Cu  5.421173  3.606124  1.791070
Cu  5.419899  5.419899 -0.014123
Cu  3.606124  5.421173  5.421173
Cu  5.421173  3.606124  5.421173
Cu  5.421173  5.421173  3.606124
Cu  3.606124  3.606124  7.251808
Cu  3.606124  5.423785  9.015804
Cu  5.423785  3.606124  9.015804
Cu  5.419899  5.419899  7.226868
Cu  3.606124  7.221823 -0.009078
Cu  3.606124  9.015804  1.788960
Cu  5.419899  7.226868  1.792847
Cu  5.415902  9.015804 -0.008209
Cu  3.606124  7.251808  3.606124
Cu  3.606124  9.015804  5.423785
Cu  5.419899  7.226868  5.419899
Cu  5.423785  9.015804  3.606124
Cu  3.606124  7.221823  7.221823
Cu  3.606124  9.015804  9.015804
Cu  5.415902  7.220954  9.015804
Cu  5.415902  9.015804  7.220954
Cu  7.219784 -0.007039 -0.007039
Cu  7.226868  1.792847  1.792847
Cu  9.015804 -0.008209  1.796843
Cu  9.015804  1.796843 -0.008209
Cu  7.221823 -0.009078  3.606124
Cu  7.226868  1.792847  5.419899
Cu  9.015804 -0.008209  5.415902
Cu  9.015804  1.788960  3.606124
Cu  7.219784 -0.007039  7.219784
Cu  7.220954  1.796843  9.015804
Cu  9.015804 -0.005837  9.015804
Cu  9.015804  1.796843  7.220954
Cu  7.221823  3.606124 -0.009078
Cu  7.226868  5.419899  1.792847
Cu  9.015804  3.606124  1.788960
Cu  9.015804  5.415902 -0.008209
Cu  7.251808  3.606124  3.606124
Cu  7.226868  5.419899  5.419899
Cu  9.015804  3.606124  5.423785
Cu  9.015804  5.423785  3.606124
Cu  7.221823  3.606124  7.221823
Cu  7.220954  5.415902  9.015804
Cu  9.015804  3.606124  9.015804
Cu  9.015804  5.415902  7.220954
Cu  7.219784  7.219784 -0.007039
Cu  7.220954  9.015804  1.796843
Cu  9.015804  7.220954  1.796843
Cu  9.015804  9.015804 -0.005837
Cu  7.221823  7.221823  3.606124
Cu  7.220954  9.015804  5.415902
Cu  9.015804  7.220954  5.415902
Cu  9.015804  9.015804  3.606124
Cu  7.219784  7.219784  7.219784
Cu  7.218079  9.015804  9.015804
Cu  9.015804  7.218079  9.015804
Cu  9.015804  9.015804  7.218079
%ENDBLOCK POSITIONS_ABS

