#######################################################
#CASTEP cell file: alau-neb/AlAu.cell
#Created using the Atomic Simulation Environment (ASE)#
#######################################################

%BLOCK LATTICE_CART
 5.608413  0.000000  0.000000
 0.000000  5.608413  0.000000
 0.000000  0.000000 13.750000
%ENDBLOCK LATTICE_CART

%BLOCK POSITIONS_ABS
Al -0.001156 -0.001156  3.985591
Al  2.805362 -0.001156  3.985591
Al -0.001156  2.805362  3.985591
Al  2.805362  2.805362  3.985591
Al  1.402103  1.402103  6.026577
Al  4.206310  1.402103  6.032929
Al  1.402103  4.206310  6.032929
Al  4.206310  4.206310  6.021398
Al -0.016049 -0.016049  8.071791
Al  2.820255 -0.016049  8.071790
Al -0.016049  2.820255  8.071790
Al  2.820255  2.820255  8.071790
Au  1.402103  1.402103  9.706640
%ENDBLOCK POSITIONS_ABS

FIX_COM: FALSE
KPOINT_MP_GRID: 7 7 3
%BLOCK POSITIONS_ABS_PRODUCT
ang
    Al -0.001 0.002 3.938
    Al 2.805 0.002 3.938
    Al -0.001 2.802 3.938
    Al 2.805 2.802 3.938
    Al 1.402 1.402 6.064
    Al 4.206 1.402 6.049
    Al 1.402 4.206 5.974
    Al 4.206 4.206 6.066
    Al 0.056 5.548 8.128
    Al 2.748 5.548 8.128
    Al 0.056 2.865 8.128
    Al 2.748 2.865 8.128
    Au 4.206 1.402 9.616
%ENDBLOCK POSITIONS_ABS_PRODUCT

%BLOCK POSITIONS_ABS_INTERMEDIATE
ang
    Al -0.001 0.001 3.962
    Al 2.805 0.001 3.962
    Al -0.001 2.804 3.962
    Al 2.805 2.804 3.962
    Al 1.402 1.402 6.045
    Al 4.206 1.402 6.041
    Al 1.402 4.206 6.004
    Al 4.206 4.206 6.044
    Al 0.020 -0.038 8.100
    Al 2.784 -0.038 8.100
    Al 0.020 2.843 8.100
    Al 2.784 2.843 8.100
    Au 2.804 1.402 9.661
%ENDBLOCK POSITIONS_ABS_INTERMEDIATE

