#######################################################
#CASTEP cell file: farm-1/initial.cell
#Created using the Atomic Simulation Environment (ASE)#
#######################################################

%BLOCK LATTICE_CART
 7.253359  0.000000  0.000000
 0.000000  7.253359  0.000000
 0.000000  0.000000  7.253359
%ENDBLOCK LATTICE_CART

%BLOCK POSITIONS_ABS
Cu -0.000016  0.000010  0.000001
Cu  7.253350  1.819280  1.819176
Cu  1.819274  7.253336  1.819210
Cu  1.819246  1.819258 -0.000004
Cu  0.000015 -0.000021  3.626677
Cu  7.253352  1.819280  5.434184
Cu  1.819272 -0.000017  5.434148
Cu  1.834521  1.834523  3.626682
Cu  7.253350  3.626673 -0.000001
Cu  7.253385  5.434078  1.819210
Cu  1.834487  3.626703  1.834479
Cu  1.819238  5.434103  0.000007
Cu  7.253378  3.626707  3.626680
Cu  7.253381  5.434078  5.434153
Cu  1.834487  3.626697  5.418876
Cu  1.834514  5.418838  3.626676
Cu  3.626691  0.000018  7.253363
Cu  3.626687  1.834493  1.834456
Cu  5.434085  0.000008  1.819175
Cu  5.434113  1.819250 -0.000001
Cu  3.626658 -0.000011  3.626677
Cu  3.626691  1.834498  5.418897
Cu  5.434087  0.000017  5.434183
Cu  5.418836  1.834512  3.626682
Cu  3.626685  3.626663  0.000003
Cu  3.626656  5.418862  1.834494
Cu  5.418870  3.626672  1.834446
Cu  5.434122  5.434112  0.000007
Cu  3.626658  5.418863  5.418870
Cu  5.418870  3.626662  5.418910
Cu  5.418844  5.418847  3.626677
%ENDBLOCK POSITIONS_ABS

FIX_COM: FALSE
KPOINT_MP_GRID: 4 4 4
%BLOCK POSITIONS_ABS_PRODUCT
ang
Cu 0.006 0.006 -0.000
Cu 0.021 1.813 1.834
Cu 1.813 0.021 1.834
Cu 1.813 1.813 7.253
Cu 0.021 0.021 3.627
Cu 0.021 1.813 5.419
Cu 1.813 0.021 5.419
Cu 3.606 3.606 3.627
Cu 0.006 3.621 -0.000
Cu 0.006 5.440 1.819
Cu 1.813 3.606 1.834
Cu 1.813 5.440 -0.000
Cu 0.021 3.606 3.627
Cu 0.006 5.440 5.434
Cu 1.813 3.606 5.419
Cu 1.813 5.440 3.627
Cu 3.621 0.006 0.000
Cu 3.606 1.813 1.834
Cu 5.440 0.006 1.819
Cu 5.440 1.813 7.253
Cu 3.606 0.021 3.627
Cu 3.606 1.813 5.419
Cu 5.440 0.006 5.434
Cu 5.440 1.813 3.627
Cu 3.621 3.621 0.000
Cu 3.621 5.440 1.819
Cu 5.440 3.621 1.819
Cu 5.440 5.440 0.000
Cu 3.621 5.440 5.434
Cu 5.440 3.621 5.434
Cu 5.440 5.440 3.627
%ENDBLOCK POSITIONS_ABS_PRODUCT

%BLOCK POSITIONS_ABS_INTERMEDIATE
ang
Cu 0.003 0.003 -0.000
Cu 7.264 1.816 1.827
Cu 1.816 7.264 1.827
Cu 1.816 1.816 -0.000
Cu 0.011 0.011 3.627
Cu 7.264 1.816 5.427
Cu 1.816 0.011 5.427
Cu 2.720 2.720 3.627
Cu 7.256 3.624 -0.000
Cu 7.256 5.437 1.819
Cu 1.824 3.616 1.834
Cu 1.816 5.437 0.000
Cu 7.264 3.616 3.627
Cu 7.256 5.437 5.434
Cu 1.824 3.616 5.419
Cu 1.824 5.429 3.627
Cu 3.624 0.003 7.253
Cu 3.616 1.824 1.834
Cu 5.437 0.003 1.819
Cu 5.437 1.816 0.000
Cu 3.616 0.011 3.627
Cu 3.616 1.824 5.419
Cu 5.437 0.003 5.434
Cu 5.429 1.824 3.627
Cu 3.624 3.624 0.000
Cu 3.624 5.429 1.827
Cu 5.429 3.624 1.827
Cu 5.437 5.437 0.000
Cu 3.624 5.429 5.427
Cu 5.429 3.624 5.427
Cu 5.429 5.429 3.627
%ENDBLOCK POSITIONS_ABS_INTERMEDIATE

