#######################################################
#CASTEP cell file: cuvac-socket-morse/CuVacMorse.cell
#Created using the Atomic Simulation Environment (ASE)#
#######################################################

%BLOCK LATTICE_CART
10.818734  0.000000  0.000000
 0.000000 10.818734  0.000000
 0.000000  0.000000 10.818734
%ENDBLOCK LATTICE_CART

%BLOCK POSITIONS_ABS
Cu -0.005633 -0.000000 -0.000000
Cu -0.007009  1.796113  1.796113
Cu  1.796684 -0.000000  1.794807
Cu  1.796684  1.794807 -0.000000
Cu -0.008315 -0.000000  3.599807
Cu -0.009561  1.793562  5.409367
Cu  1.788757 -0.000000  5.409367
Cu  1.792640  1.788777  3.595763
Cu -0.008315 -0.000000  7.218927
Cu -0.007009  1.796113  9.022620
Cu  1.796684 -0.000000  9.023927
Cu  1.792640  1.788777  7.222971
Cu -0.008315  3.599807 -0.000000
Cu -0.009561  5.409367  1.793562
Cu  1.792640  3.595763  1.788777
Cu  1.788757  5.409367 -0.000000
Cu -0.014345  3.595763  3.595763
Cu -0.039271  5.409367  5.409367
Cu  1.790828  3.593950  5.409367
Cu  1.790828  5.409367  3.593950
Cu -0.014345  3.595763  7.222971
Cu -0.009561  5.409367  9.025172
Cu  1.792640  3.595763  9.029957
Cu  1.790828  5.409367  7.224784
Cu -0.008315  7.218927 -0.000000
Cu -0.007009  9.022620  1.796113
Cu  1.792640  7.222971  1.788777
Cu  1.796684  9.023927 -0.000000
Cu -0.014345  7.222971  3.595763
Cu -0.009561  9.025172  5.409367
Cu  1.790828  7.224784  5.409367
Cu  1.792640  9.029957  3.595763
Cu -0.014345  7.222971  7.222971
Cu -0.007009  9.022620  9.022620
Cu  1.792640  7.222971  9.029957
Cu  1.792640  9.029957  7.222971
Cu  3.606245 -0.000000 -0.000000
Cu  3.606245  1.793562  1.793562
Cu  5.415805 -0.000000  1.794807
Cu  5.415805  1.794807 -0.000000
Cu  3.606245 -0.000000  3.591879
Cu  3.606245  1.763851  5.409367
Cu  5.423733 -0.000000  5.409367
Cu  5.419849  1.788777  3.595763
Cu  3.606245 -0.000000  7.226855
Cu  3.606245  1.793562  9.025172
Cu  5.415805 -0.000000  9.023927
Cu  5.419849  1.788777  7.222971
Cu  3.606245  3.591879 -0.000000
Cu  3.606245  5.409367  1.763851
Cu  5.419849  3.595763  1.788777
Cu  5.423733  5.409367 -0.000000
Cu  3.606245  3.593950  3.593950
Cu  5.421661  3.593950  5.409367
Cu  5.421661  5.409367  3.593950
Cu  3.606245  3.593950  7.224784
Cu  3.606245  5.409367  9.054882
Cu  5.419849  3.595763  9.029957
Cu  5.421661  5.409367  7.224784
Cu  3.606245  7.226855 -0.000000
Cu  3.606245  9.025172  1.793562
Cu  5.419849  7.222971  1.788777
Cu  5.415805  9.023927 -0.000000
Cu  3.606245  7.224784  3.593950
Cu  3.606245  9.054882  5.409367
Cu  5.421661  7.224784  5.409367
Cu  5.419849  9.029957  3.595763
Cu  3.606245  7.224784  7.224784
Cu  3.606245  9.025172  9.025172
Cu  5.419849  7.222971  9.029957
Cu  5.419849  9.029957  7.222971
Cu  7.218122 -0.000000 -0.000000
Cu  7.219498  1.796113  1.796113
Cu  9.015611 -0.000000  1.797489
Cu  9.015611  1.797489 -0.000000
Cu  7.220805 -0.000000  3.599807
Cu  7.222050  1.793562  5.409367
Cu  9.015611 -0.000000  5.409367
Cu  9.015611  1.794807  3.599807
Cu  7.220805 -0.000000  7.218927
Cu  7.219498  1.796113  9.022620
Cu  9.015611 -0.000000  9.021244
Cu  9.015611  1.794807  7.218927
Cu  7.220805  3.599807 -0.000000
Cu  7.222050  5.409367  1.793562
Cu  9.015611  3.599807  1.794807
Cu  9.015611  5.409367 -0.000000
Cu  7.226835  3.595763  3.595763
Cu  7.251760  5.409367  5.409367
Cu  9.015611  3.591879  5.409367
Cu  9.015611  5.409367  3.591879
Cu  7.226835  3.595763  7.222971
Cu  7.222050  5.409367  9.025172
Cu  9.015611  3.599807  9.023927
Cu  9.015611  5.409367  7.226855
Cu  7.220805  7.218927 -0.000000
Cu  7.219498  9.022620  1.796113
Cu  9.015611  7.218927  1.794807
Cu  9.015611  9.021244 -0.000000
Cu  7.226835  7.222971  3.595763
Cu  7.222050  9.025172  5.409367
Cu  9.015611  7.226855  5.409367
Cu  9.015611  9.023927  3.599807
Cu  7.226835  7.222971  7.222971
Cu  7.219498  9.022620  9.022620
Cu  9.015611  7.218927  9.023927
Cu  9.015611  9.023927  7.218927
%ENDBLOCK POSITIONS_ABS

